 
$molecule
-1,2
C         -0.00209        0.00000        0.00680
C          0.00182        0.00000        1.31965
F          1.13207        0.00000       -0.70905
H         -0.88081        0.00000       -0.62956
H          0.92735        0.00000        1.88121
H         -0.93978        0.00000        1.85133
$end

$comment
negative
$end

$xc_functional
C PBE   1.00
X wPBE  1.00
$end

$rem
SYMMETRY_DECOMPOSITION	0
exchange 		general
LRC_DFT                 true
BASIS                   g3large
omega			420
mem_static              760
max_scf_cycles          200
scf_final_print         1
sym_ignore              true
$end

@@@
 
$molecule
0,1
C         -0.00209        0.00000        0.00680
C          0.00182        0.00000        1.31965
F          1.13207        0.00000       -0.70905
H         -0.88081        0.00000       -0.62956
H          0.92735        0.00000        1.88121
H         -0.93978        0.00000        1.85133
$end

$comment
neutral
$end

$xc_functional
C PBE   1.00
X wPBE  1.00
$end


$rem
SYMMETRY_DECOMPOSITION	0
LRC_DFT                 true
exchange 		general
BASIS                   g3large
omega			420
mem_static              760
max_scf_cycles          200
scf_final_print         1
sym_ignore              true
$end

@@@
 
$molecule
1,2
C         -0.00209        0.00000        0.00680
C          0.00182        0.00000        1.31965
F          1.13207        0.00000       -0.70905
H         -0.88081        0.00000       -0.62956
H          0.92735        0.00000        1.88121
H         -0.93978        0.00000        1.85133
$end

$comment
positive
$end

$xc_functional
C PBE   1.00
X wPBE  1.00
$end

$rem
SYMMETRY_DECOMPOSITION	0
LRC_DFT                 true
exchange 		general
BASIS                   g3large
omega			420
mem_static              760
max_scf_cycles          200
scf_final_print         1
sym_ignore              true
$end

