 
$molecule
-1,2
Si         0.00012        0.00000       -0.00018
F          0.00000        0.00000        1.54969
F          1.46108        0.00000       -0.51646
F         -0.73061       -1.26568       -0.51651
F         -0.73061        1.26568       -0.51651
$end

$comment
negative
$end

$xc_functional
C PBE   1.00
X wPBE  1.00
$end

$rem
SYMMETRY_DECOMPOSITION	0
exchange 		general
LRC_DFT                 true
BASIS                   g3large
omega			620
mem_static              760
max_scf_cycles          200
scf_final_print         1
sym_ignore              true
$end

@@@
 
$molecule
0,1
Si         0.00012        0.00000       -0.00018
F          0.00000        0.00000        1.54969
F          1.46108        0.00000       -0.51646
F         -0.73061       -1.26568       -0.51651
F         -0.73061        1.26568       -0.51651
$end

$comment
neutral
$end

$xc_functional
C PBE   1.00
X wPBE  1.00
$end


$rem
SYMMETRY_DECOMPOSITION	0
LRC_DFT                 true
exchange 		general
BASIS                   g3large
omega			620
mem_static              760
max_scf_cycles          200
scf_final_print         1
sym_ignore              true
$end

@@@
 
$molecule
1,2
Si         0.00012        0.00000       -0.00018
F          0.00000        0.00000        1.54969
F          1.46108        0.00000       -0.51646
F         -0.73061       -1.26568       -0.51651
F         -0.73061        1.26568       -0.51651
$end

$comment
positive
$end

$xc_functional
C PBE   1.00
X wPBE  1.00
$end

$rem
SYMMETRY_DECOMPOSITION	0
LRC_DFT                 true
exchange 		general
BASIS                   g3large
omega			620
mem_static              760
max_scf_cycles          200
scf_final_print         1
sym_ignore              true
$end

