 
$molecule
-1,2
N         -0.00019        0.00000        1.00438
C          1.38790        0.00000        1.43197
C         -0.69412        1.20249        1.43121
C         -0.69412       -1.20249        1.43121
H          1.49619        0.00000        2.53088
H          1.89589        0.88266        1.04284
H          1.89589       -0.88266        1.04284
H         -0.74747        1.29837        2.53019
H         -1.71285        1.20129        1.04311
H         -0.18341        2.08302        1.04117
H         -0.74747       -1.29837        2.53019
H         -0.18341       -2.08302        1.04117
H         -1.71285       -1.20129        1.04311
$end

$comment
negative
$end

$xc_functional
C PBE   1.00
X wPBE  1.00
$end

$rem
SYMMETRY_DECOMPOSITION	0
exchange 		general
LRC_DFT                 true
BASIS                   g3large
omega			900
mem_static              760
max_scf_cycles          200
scf_final_print         1
sym_ignore              true
$end

@@@
 
$molecule
0,1
N         -0.00019        0.00000        1.00438
C          1.38790        0.00000        1.43197
C         -0.69412        1.20249        1.43121
C         -0.69412       -1.20249        1.43121
H          1.49619        0.00000        2.53088
H          1.89589        0.88266        1.04284
H          1.89589       -0.88266        1.04284
H         -0.74747        1.29837        2.53019
H         -1.71285        1.20129        1.04311
H         -0.18341        2.08302        1.04117
H         -0.74747       -1.29837        2.53019
H         -0.18341       -2.08302        1.04117
H         -1.71285       -1.20129        1.04311
$end

$comment
neutral
$end

$xc_functional
C PBE   1.00
X wPBE  1.00
$end


$rem
SYMMETRY_DECOMPOSITION	0
LRC_DFT                 true
exchange 		general
BASIS                   g3large
omega			900
mem_static              760
max_scf_cycles          200
scf_final_print         1
sym_ignore              true
$end

@@@
 
$molecule
1,2
N         -0.00019        0.00000        1.00438
C          1.38790        0.00000        1.43197
C         -0.69412        1.20249        1.43121
C         -0.69412       -1.20249        1.43121
H          1.49619        0.00000        2.53088
H          1.89589        0.88266        1.04284
H          1.89589       -0.88266        1.04284
H         -0.74747        1.29837        2.53019
H         -1.71285        1.20129        1.04311
H         -0.18341        2.08302        1.04117
H         -0.74747       -1.29837        2.53019
H         -0.18341       -2.08302        1.04117
H         -1.71285       -1.20129        1.04311
$end

$comment
positive
$end

$xc_functional
C PBE   1.00
X wPBE  1.00
$end

$rem
SYMMETRY_DECOMPOSITION	0
LRC_DFT                 true
exchange 		general
BASIS                   g3large
omega			900
mem_static              760
max_scf_cycles          200
scf_final_print         1
sym_ignore              true
$end

