 
$molecule
-1,2
N         -0.00020        0.00000       -0.00434
F          1.23553        0.00000       -0.61180
F         -0.61767       -1.07008       -0.61170
F         -0.61767        1.07008       -0.61170
$end

$comment
negative
$end

$xc_functional
C PBE   1.00
X wPBE  1.00
$end

$rem
SYMMETRY_DECOMPOSITION	0
exchange 		general
LRC_DFT                 true
BASIS                   g3large
omega			200
mem_static              760
max_scf_cycles          200
scf_final_print         1
sym_ignore              true
$end

@@@
 
$molecule
0,1
N         -0.00020        0.00000       -0.00434
F          1.23553        0.00000       -0.61180
F         -0.61767       -1.07008       -0.61170
F         -0.61767        1.07008       -0.61170
$end

$comment
neutral
$end

$xc_functional
C PBE   1.00
X wPBE  1.00
$end


$rem
SYMMETRY_DECOMPOSITION	0
LRC_DFT                 true
exchange 		general
BASIS                   g3large
omega			200
mem_static              760
max_scf_cycles          200
scf_final_print         1
sym_ignore              true
$end

@@@
 
$molecule
1,2
N         -0.00020        0.00000       -0.00434
F          1.23553        0.00000       -0.61180
F         -0.61767       -1.07008       -0.61170
F         -0.61767        1.07008       -0.61170
$end

$comment
positive
$end

$xc_functional
C PBE   1.00
X wPBE  1.00
$end

$rem
SYMMETRY_DECOMPOSITION	0
LRC_DFT                 true
exchange 		general
BASIS                   g3large
omega			200
mem_static              760
max_scf_cycles          200
scf_final_print         1
sym_ignore              true
$end

