 
$molecule
-1,2
C          0.00000        0.00000       -0.00710
C          0.74823        0.00000       -1.30301
C         -0.74823        0.00000       -1.30301
H          0.00000       -0.91055        0.58069
H          0.00000        0.91055        0.58069
H          1.25737        0.91053       -1.59689
H          1.25737       -0.91053       -1.59689
H         -1.25737       -0.91053       -1.59689
H         -1.25737        0.91053       -1.59689
$end

$comment
negative
$end

$xc_functional
C PBE   1.00
X wPBE  1.00
$end

$rem
SYMMETRY_DECOMPOSITION	0
exchange 		general
LRC_DFT                 true
BASIS                   g3large
omega			320
mem_static              760
max_scf_cycles          200
scf_final_print         1
sym_ignore              true
$end

@@@
 
$molecule
0,1
C          0.00000        0.00000       -0.00710
C          0.74823        0.00000       -1.30301
C         -0.74823        0.00000       -1.30301
H          0.00000       -0.91055        0.58069
H          0.00000        0.91055        0.58069
H          1.25737        0.91053       -1.59689
H          1.25737       -0.91053       -1.59689
H         -1.25737       -0.91053       -1.59689
H         -1.25737        0.91053       -1.59689
$end

$comment
neutral
$end

$xc_functional
C PBE   1.00
X wPBE  1.00
$end


$rem
SYMMETRY_DECOMPOSITION	0
LRC_DFT                 true
exchange 		general
BASIS                   g3large
omega			320
mem_static              760
max_scf_cycles          200
scf_final_print         1
sym_ignore              true
$end

@@@
 
$molecule
1,2
C          0.00000        0.00000       -0.00710
C          0.74823        0.00000       -1.30301
C         -0.74823        0.00000       -1.30301
H          0.00000       -0.91055        0.58069
H          0.00000        0.91055        0.58069
H          1.25737        0.91053       -1.59689
H          1.25737       -0.91053       -1.59689
H         -1.25737       -0.91053       -1.59689
H         -1.25737        0.91053       -1.59689
$end

$comment
positive
$end

$xc_functional
C PBE   1.00
X wPBE  1.00
$end

$rem
SYMMETRY_DECOMPOSITION	0
LRC_DFT                 true
exchange 		general
BASIS                   g3large
omega			320
mem_static              760
max_scf_cycles          200
scf_final_print         1
sym_ignore              true
$end

