 
$molecule
-1,2
C         -0.00001        0.00088        0.00826
N          0.00006       -0.00293        1.49015
O          1.07444        0.00041        2.04266
O         -1.07387       -0.03455        2.04268
H          0.01747       -1.04046       -0.30637
H         -0.91251        0.48153       -0.32807
H          0.89582        0.51193       -0.32805
$end

$comment
negative
$end

$xc_functional
C PBE   1.00
X wPBE  1.00
$end

$rem
SYMMETRY_DECOMPOSITION	0
exchange 		general
LRC_DFT                 true
BASIS                   g3large
omega			500
mem_static              760
max_scf_cycles          200
scf_final_print         1
sym_ignore              true
$end

@@@
 
$molecule
0,1
C         -0.00001        0.00088        0.00826
N          0.00006       -0.00293        1.49015
O          1.07444        0.00041        2.04266
O         -1.07387       -0.03455        2.04268
H          0.01747       -1.04046       -0.30637
H         -0.91251        0.48153       -0.32807
H          0.89582        0.51193       -0.32805
$end

$comment
neutral
$end

$xc_functional
C PBE   1.00
X wPBE  1.00
$end


$rem
SYMMETRY_DECOMPOSITION	0
LRC_DFT                 true
exchange 		general
BASIS                   g3large
omega			500
mem_static              760
max_scf_cycles          200
scf_final_print         1
sym_ignore              true
$end

@@@
 
$molecule
1,2
C         -0.00001        0.00088        0.00826
N          0.00006       -0.00293        1.49015
O          1.07444        0.00041        2.04266
O         -1.07387       -0.03455        2.04268
H          0.01747       -1.04046       -0.30637
H         -0.91251        0.48153       -0.32807
H          0.89582        0.51193       -0.32805
$end

$comment
positive
$end

$xc_functional
C PBE   1.00
X wPBE  1.00
$end

$rem
SYMMETRY_DECOMPOSITION	0
LRC_DFT                 true
exchange 		general
BASIS                   g3large
omega			500
mem_static              760
max_scf_cycles          200
scf_final_print         1
sym_ignore              true
$end

