 
$molecule
-1,1
C          0.00066        0.00000        0.00923
C          1.48326        0.00000       -0.15194
C         -0.74141       -1.28318       -0.15865
C         -0.74141        1.28318       -0.15865
H          1.78055        0.00000       -1.21398
H          1.94064        0.88479        0.29570
H          1.94064       -0.88479        0.29570
H         -0.89921       -1.52854       -1.22216
H         -0.19971       -2.12595        0.27531
H         -1.73255       -1.24175        0.29748
H         -0.89921        1.52854       -1.22216
H         -1.73255        1.24175        0.29748
H         -0.19971        2.12595        0.27531
$end

$comment
negative
$end

$xc_functional
C PBE   1.00
X wPBE  1.00
$end

$rem
SYMMETRY_DECOMPOSITION	0
exchange 		general
LRC_DFT                 true
BASIS                   g3large
omega			600
mem_static              760
max_scf_cycles          200
scf_final_print         1
sym_ignore              true
$end

@@@
 
$molecule
0,2
C          0.00066        0.00000        0.00923
C          1.48326        0.00000       -0.15194
C         -0.74141       -1.28318       -0.15865
C         -0.74141        1.28318       -0.15865
H          1.78055        0.00000       -1.21398
H          1.94064        0.88479        0.29570
H          1.94064       -0.88479        0.29570
H         -0.89921       -1.52854       -1.22216
H         -0.19971       -2.12595        0.27531
H         -1.73255       -1.24175        0.29748
H         -0.89921        1.52854       -1.22216
H         -1.73255        1.24175        0.29748
H         -0.19971        2.12595        0.27531
$end

$comment
neutral
$end

$xc_functional
C PBE   1.00
X wPBE  1.00
$end


$rem
SYMMETRY_DECOMPOSITION	0
LRC_DFT                 true
exchange 		general
BASIS                   g3large
omega			600
mem_static              760
max_scf_cycles          200
scf_final_print         1
sym_ignore              true
$end

@@@
 
$molecule
1,1
C          0.00066        0.00000        0.00923
C          1.48326        0.00000       -0.15194
C         -0.74141       -1.28318       -0.15865
C         -0.74141        1.28318       -0.15865
H          1.78055        0.00000       -1.21398
H          1.94064        0.88479        0.29570
H          1.94064       -0.88479        0.29570
H         -0.89921       -1.52854       -1.22216
H         -0.19971       -2.12595        0.27531
H         -1.73255       -1.24175        0.29748
H         -0.89921        1.52854       -1.22216
H         -1.73255        1.24175        0.29748
H         -0.19971        2.12595        0.27531
$end

$comment
positive
$end

$xc_functional
C PBE   1.00
X wPBE  1.00
$end

$rem
SYMMETRY_DECOMPOSITION	0
LRC_DFT                 true
exchange 		general
BASIS                   g3large
omega			600
mem_static              760
max_scf_cycles          200
scf_final_print         1
sym_ignore              true
$end

