 
$molecule
-1,2
C          0.00889        0.00000        0.00112
C          0.00119        0.00000        1.50991
Cl         1.66461        0.00000       -0.64123
H         -0.48182       -0.88318       -0.40395
H         -0.48182        0.88318       -0.40395
H         -1.02857        0.00000        1.87326
H          0.50480       -0.88366        1.90198
H          0.50480        0.88366        1.90198
$end

$comment
negative
$end

$xc_functional
C PBE   1.00
X wPBE  1.00
$end

$rem
SYMMETRY_DECOMPOSITION	0
exchange 		general
LRC_DFT                 true
BASIS                   g3large
omega			500
mem_static              760
max_scf_cycles          200
scf_final_print         1
sym_ignore              true
$end

@@@
 
$molecule
0,1
C          0.00889        0.00000        0.00112
C          0.00119        0.00000        1.50991
Cl         1.66461        0.00000       -0.64123
H         -0.48182       -0.88318       -0.40395
H         -0.48182        0.88318       -0.40395
H         -1.02857        0.00000        1.87326
H          0.50480       -0.88366        1.90198
H          0.50480        0.88366        1.90198
$end

$comment
neutral
$end

$xc_functional
C PBE   1.00
X wPBE  1.00
$end


$rem
SYMMETRY_DECOMPOSITION	0
LRC_DFT                 true
exchange 		general
BASIS                   g3large
omega			500
mem_static              760
max_scf_cycles          200
scf_final_print         1
sym_ignore              true
$end

@@@
 
$molecule
1,2
C          0.00889        0.00000        0.00112
C          0.00119        0.00000        1.50991
Cl         1.66461        0.00000       -0.64123
H         -0.48182       -0.88318       -0.40395
H         -0.48182        0.88318       -0.40395
H         -1.02857        0.00000        1.87326
H          0.50480       -0.88366        1.90198
H          0.50480        0.88366        1.90198
$end

$comment
positive
$end

$xc_functional
C PBE   1.00
X wPBE  1.00
$end

$rem
SYMMETRY_DECOMPOSITION	0
LRC_DFT                 true
exchange 		general
BASIS                   g3large
omega			500
mem_static              760
max_scf_cycles          200
scf_final_print         1
sym_ignore              true
$end

