 
$molecule
-1,2
P          0.00006        0.00000       -0.00333
H          1.19057        0.00000       -0.77154
H         -0.59532       -1.03079       -0.77158
H         -0.59532        1.03079       -0.77158
$end

$comment
negative
$end

$xc_functional
C PBE   1.00
X wPBE  1.00
$end

$rem
SYMMETRY_DECOMPOSITION	0
exchange 		general
LRC_DFT                 true
BASIS                   g3large
omega			200
mem_static              760
max_scf_cycles          200
scf_final_print         1
sym_ignore              true
$end

@@@
 
$molecule
0,1
P          0.00006        0.00000       -0.00333
H          1.19057        0.00000       -0.77154
H         -0.59532       -1.03079       -0.77158
H         -0.59532        1.03079       -0.77158
$end

$comment
neutral
$end

$xc_functional
C PBE   1.00
X wPBE  1.00
$end


$rem
SYMMETRY_DECOMPOSITION	0
LRC_DFT                 true
exchange 		general
BASIS                   g3large
omega			200
mem_static              760
max_scf_cycles          200
scf_final_print         1
sym_ignore              true
$end

@@@
 
$molecule
1,2
P          0.00006        0.00000       -0.00333
H          1.19057        0.00000       -0.77154
H         -0.59532       -1.03079       -0.77158
H         -0.59532        1.03079       -0.77158
$end

$comment
positive
$end

$xc_functional
C PBE   1.00
X wPBE  1.00
$end

$rem
SYMMETRY_DECOMPOSITION	0
LRC_DFT                 true
exchange 		general
BASIS                   g3large
omega			200
mem_static              760
max_scf_cycles          200
scf_final_print         1
sym_ignore              true
$end

