 
$molecule
-1,2
S          0.02132        0.00000        0.02065
C          0.00874        0.00000        1.72264
C          1.72227        0.00000       -0.03662
C          1.27432        0.00000        2.23274
C          2.26555        0.00000        1.21503
H         -0.92902        0.00000        2.26361
H          2.23827        0.00000       -0.98836
H          1.49097        0.00000        3.29599
H          3.33415        0.00000        1.40349
$end

$comment
negative
$end

$xc_functional
C PBE   1.00
X wPBE  1.00
$end

$rem
SYMMETRY_DECOMPOSITION	0
exchange 		general
LRC_DFT                 true
BASIS                   g3large
omega			600
mem_static              760
max_scf_cycles          200
scf_final_print         1
sym_ignore              true
$end

@@@
 
$molecule
0,1
S          0.02132        0.00000        0.02065
C          0.00874        0.00000        1.72264
C          1.72227        0.00000       -0.03662
C          1.27432        0.00000        2.23274
C          2.26555        0.00000        1.21503
H         -0.92902        0.00000        2.26361
H          2.23827        0.00000       -0.98836
H          1.49097        0.00000        3.29599
H          3.33415        0.00000        1.40349
$end

$comment
neutral
$end

$xc_functional
C PBE   1.00
X wPBE  1.00
$end


$rem
SYMMETRY_DECOMPOSITION	0
LRC_DFT                 true
exchange 		general
BASIS                   g3large
omega			600
mem_static              760
max_scf_cycles          200
scf_final_print         1
sym_ignore              true
$end

@@@
 
$molecule
1,2
S          0.02132        0.00000        0.02065
C          0.00874        0.00000        1.72264
C          1.72227        0.00000       -0.03662
C          1.27432        0.00000        2.23274
C          2.26555        0.00000        1.21503
H         -0.92902        0.00000        2.26361
H          2.23827        0.00000       -0.98836
H          1.49097        0.00000        3.29599
H          3.33415        0.00000        1.40349
$end

$comment
positive
$end

$xc_functional
C PBE   1.00
X wPBE  1.00
$end

$rem
SYMMETRY_DECOMPOSITION	0
LRC_DFT                 true
exchange 		general
BASIS                   g3large
omega			600
mem_static              760
max_scf_cycles          200
scf_final_print         1
sym_ignore              true
$end

