 
$molecule
-1,2
C          0.07043       -1.45413        0.82804
C          0.06916        0.06928        0.82926
S         -0.07666        0.68204       -0.89563
H         -0.04800        1.99265       -0.61356
H         -0.76875        0.45145        1.40898
H          0.99195        0.45265        1.26046
H          0.16060       -1.82863        1.84831
H         -0.85203       -1.85112        0.40382
H          0.90596       -1.84850        0.24934
$end

$comment
negative
$end

$xc_functional
C PBE   1.00
X wPBE  1.00
$end

$rem
SYMMETRY_DECOMPOSITION	0
exchange 		general
LRC_DFT                 true
BASIS                   g3large
omega			2000
mem_static              760
max_scf_cycles          200
scf_final_print         1
sym_ignore              true
$end

@@@
 
$molecule
0,1
C          0.07043       -1.45413        0.82804
C          0.06916        0.06928        0.82926
S         -0.07666        0.68204       -0.89563
H         -0.04800        1.99265       -0.61356
H         -0.76875        0.45145        1.40898
H          0.99195        0.45265        1.26046
H          0.16060       -1.82863        1.84831
H         -0.85203       -1.85112        0.40382
H          0.90596       -1.84850        0.24934
$end

$comment
neutral
$end

$xc_functional
C PBE   1.00
X wPBE  1.00
$end


$rem
SYMMETRY_DECOMPOSITION	0
LRC_DFT                 true
exchange 		general
BASIS                   g3large
omega			2000
mem_static              760
max_scf_cycles          200
scf_final_print         1
sym_ignore              true
$end

@@@
 
$molecule
1,2
C          0.07043       -1.45413        0.82804
C          0.06916        0.06928        0.82926
S         -0.07666        0.68204       -0.89563
H         -0.04800        1.99265       -0.61356
H         -0.76875        0.45145        1.40898
H          0.99195        0.45265        1.26046
H          0.16060       -1.82863        1.84831
H         -0.85203       -1.85112        0.40382
H          0.90596       -1.84850        0.24934
$end

$comment
positive
$end

$xc_functional
C PBE   1.00
X wPBE  1.00
$end

$rem
SYMMETRY_DECOMPOSITION	0
LRC_DFT                 true
exchange 		general
BASIS                   g3large
omega			2000
mem_static              760
max_scf_cycles          200
scf_final_print         1
sym_ignore              true
$end

