 
$molecule
-1,2
C         -0.00049        0.00000        0.00524
C         -0.00016        0.00000        1.48602
F          1.25126        0.00000       -0.45790
F         -0.62562       -1.08374       -0.45900
F         -0.62562        1.08374       -0.45900
N          0.00062        0.00000        2.63228
$end

$comment
negative
$end

$xc_functional
C PBE   1.00
X wPBE  1.00
$end

$rem
SYMMETRY_DECOMPOSITION	0
exchange 		general
LRC_DFT                 true
BASIS                   g3large
omega			800
mem_static              760
max_scf_cycles          200
scf_final_print         1
sym_ignore              true
$end

@@@
 
$molecule
0,1
C         -0.00049        0.00000        0.00524
C         -0.00016        0.00000        1.48602
F          1.25126        0.00000       -0.45790
F         -0.62562       -1.08374       -0.45900
F         -0.62562        1.08374       -0.45900
N          0.00062        0.00000        2.63228
$end

$comment
neutral
$end

$xc_functional
C PBE   1.00
X wPBE  1.00
$end


$rem
SYMMETRY_DECOMPOSITION	0
LRC_DFT                 true
exchange 		general
BASIS                   g3large
omega			800
mem_static              760
max_scf_cycles          200
scf_final_print         1
sym_ignore              true
$end

@@@
 
$molecule
1,2
C         -0.00049        0.00000        0.00524
C         -0.00016        0.00000        1.48602
F          1.25126        0.00000       -0.45790
F         -0.62562       -1.08374       -0.45900
F         -0.62562        1.08374       -0.45900
N          0.00062        0.00000        2.63228
$end

$comment
positive
$end

$xc_functional
C PBE   1.00
X wPBE  1.00
$end

$rem
SYMMETRY_DECOMPOSITION	0
LRC_DFT                 true
exchange 		general
BASIS                   g3large
omega			800
mem_static              760
max_scf_cycles          200
scf_final_print         1
sym_ignore              true
$end

