 
$molecule
-1,1
C         -0.01135        0.00000       -0.02048
C          0.03725        0.00000        1.50134
O          1.28035        0.00000        2.05906
H         -0.50875        0.86234        1.92942
H         -0.50875       -0.86234        1.92942
H         -1.04370        0.00000       -0.37472
H          0.48857        0.88287       -0.41822
H          0.48857       -0.88287       -0.41822
$end

$comment
negative
$end

$xc_functional
C PBE   1.00
X wPBE  1.00
$end

$rem
SYMMETRY_DECOMPOSITION	0
exchange 		general
LRC_DFT                 true
BASIS                   g3large
omega			xOMEGA
mem_static              760
max_scf_cycles          200
scf_final_print         1
sym_ignore              true
$end

@@@
 
$molecule
0,2
C         -0.01135        0.00000       -0.02048
C          0.03725        0.00000        1.50134
O          1.28035        0.00000        2.05906
H         -0.50875        0.86234        1.92942
H         -0.50875       -0.86234        1.92942
H         -1.04370        0.00000       -0.37472
H          0.48857        0.88287       -0.41822
H          0.48857       -0.88287       -0.41822
$end

$comment
neutral
$end

$xc_functional
C PBE   1.00
X wPBE  1.00
$end


$rem
SYMMETRY_DECOMPOSITION	0
LRC_DFT                 true
exchange 		general
BASIS                   g3large
omega			xOMEGA
mem_static              760
max_scf_cycles          200
scf_final_print         1
sym_ignore              true
$end

@@@
 
$molecule
1,1
C         -0.01135        0.00000       -0.02048
C          0.03725        0.00000        1.50134
O          1.28035        0.00000        2.05906
H         -0.50875        0.86234        1.92942
H         -0.50875       -0.86234        1.92942
H         -1.04370        0.00000       -0.37472
H          0.48857        0.88287       -0.41822
H          0.48857       -0.88287       -0.41822
$end

$comment
positive
$end

$xc_functional
C PBE   1.00
X wPBE  1.00
$end

$rem
SYMMETRY_DECOMPOSITION	0
LRC_DFT                 true
exchange 		general
BASIS                   g3large
omega			xOMEGA
mem_static              760
max_scf_cycles          200
scf_final_print         1
sym_ignore              true
$end

