 
$molecule
-1,2
 C        25.045259       23.435011       24.198259
 C        23.883123       22.987669       23.571693
 C        22.952639       23.894247       23.036823
 C        23.225454       25.266073       23.167511
 C        24.388231       25.712584       23.794245
 C        25.325571       24.806040       24.316170
 H        25.746307       22.708881       24.618103
 H        23.683336       21.915379       23.505596
 H        22.506229       25.992571       22.782879
 H        24.569353       26.785936       23.895315
 H        21.333246       24.090744       21.797949
 H        21.790066       22.505487       22.079519
 H        26.780706       26.185043       24.738384
 H        27.238531       24.598999       25.019846
 N        26.464031       25.257441       25.008450
 N        21.747786       23.445486       22.464247

$end

$comment
negative
$end

$xc_functional
   X HF 1.0
   X BNL 1.0
   C LYP 1.0
$end

$rem
SYMMETRY_DECOMPOSITION	0
exchange 		general
BASIS                   g3large
omega			500
separate_jk		true
mem_static              760
max_scf_cycles          200
scf_final_print         1
sym_ignore              true
$end

@@@
 
$molecule
0,1
 C        25.045259       23.435011       24.198259
 C        23.883123       22.987669       23.571693
 C        22.952639       23.894247       23.036823
 C        23.225454       25.266073       23.167511
 C        24.388231       25.712584       23.794245
 C        25.325571       24.806040       24.316170
 H        25.746307       22.708881       24.618103
 H        23.683336       21.915379       23.505596
 H        22.506229       25.992571       22.782879
 H        24.569353       26.785936       23.895315
 H        21.333246       24.090744       21.797949
 H        21.790066       22.505487       22.079519
 H        26.780706       26.185043       24.738384
 H        27.238531       24.598999       25.019846
 N        26.464031       25.257441       25.008450
 N        21.747786       23.445486       22.464247

$end

$comment
neutral
$end

$xc_functional
   X HF 1.0
   X BNL 1.0
   C LYP 1.0
$end

$rem
SYMMETRY_DECOMPOSITION	0
exchange 		general
BASIS                   g3large
omega			500
separate_jk		true
mem_static              760
max_scf_cycles          200
scf_final_print         1
sym_ignore              true
$end

@@@
 
$molecule
1,2
 C        25.045259       23.435011       24.198259
 C        23.883123       22.987669       23.571693
 C        22.952639       23.894247       23.036823
 C        23.225454       25.266073       23.167511
 C        24.388231       25.712584       23.794245
 C        25.325571       24.806040       24.316170
 H        25.746307       22.708881       24.618103
 H        23.683336       21.915379       23.505596
 H        22.506229       25.992571       22.782879
 H        24.569353       26.785936       23.895315
 H        21.333246       24.090744       21.797949
 H        21.790066       22.505487       22.079519
 H        26.780706       26.185043       24.738384
 H        27.238531       24.598999       25.019846
 N        26.464031       25.257441       25.008450
 N        21.747786       23.445486       22.464247

$end

$comment
positive
$end

$xc_functional
   X HF 1.0
   X BNL 1.0
   C LYP 1.0
$end

$rem
SYMMETRY_DECOMPOSITION	0
exchange 		general
BASIS                   g3large
omega			500
separate_jk		true
mem_static              760
max_scf_cycles          200
scf_final_print         1
sym_ignore              true
$end

