 
$molecule
-1,2
C          0.00234        0.00000        0.00681
C          0.00235        0.00000        1.34118
C          1.20152        0.00000        2.16144
C          1.20153        0.00000        3.49582
H         -0.91740        0.00000       -0.56091
H          0.92590        0.00000       -0.55917
H         -0.94429        0.00000        1.87271
H          2.14816        0.00000        1.62991
H          0.27796        0.00000        4.06179
H          2.12126        0.00000        4.06354
$end

$comment
negative
$end

$xc_functional
C PBE   1.00
X wPBE  1.00
$end

$rem
SYMMETRY_DECOMPOSITION	0
exchange 		general
LRC_DFT                 true
BASIS                   g3large
omega			500
mem_static              760
max_scf_cycles          200
scf_final_print         1
sym_ignore              true
$end

@@@
 
$molecule
0,1
C          0.00234        0.00000        0.00681
C          0.00235        0.00000        1.34118
C          1.20152        0.00000        2.16144
C          1.20153        0.00000        3.49582
H         -0.91740        0.00000       -0.56091
H          0.92590        0.00000       -0.55917
H         -0.94429        0.00000        1.87271
H          2.14816        0.00000        1.62991
H          0.27796        0.00000        4.06179
H          2.12126        0.00000        4.06354
$end

$comment
neutral
$end

$xc_functional
C PBE   1.00
X wPBE  1.00
$end


$rem
SYMMETRY_DECOMPOSITION	0
LRC_DFT                 true
exchange 		general
BASIS                   g3large
omega			500
mem_static              760
max_scf_cycles          200
scf_final_print         1
sym_ignore              true
$end

@@@
 
$molecule
1,2
C          0.00234        0.00000        0.00681
C          0.00235        0.00000        1.34118
C          1.20152        0.00000        2.16144
C          1.20153        0.00000        3.49582
H         -0.91740        0.00000       -0.56091
H          0.92590        0.00000       -0.55917
H         -0.94429        0.00000        1.87271
H          2.14816        0.00000        1.62991
H          0.27796        0.00000        4.06179
H          2.12126        0.00000        4.06354
$end

$comment
positive
$end

$xc_functional
C PBE   1.00
X wPBE  1.00
$end

$rem
SYMMETRY_DECOMPOSITION	0
LRC_DFT                 true
exchange 		general
BASIS                   g3large
omega			500
mem_static              760
max_scf_cycles          200
scf_final_print         1
sym_ignore              true
$end

