 
$molecule
-1,2
C         -0.00014        0.00000        0.00788
Si        -0.00072        0.00000        1.88383
H          1.01879        0.00000       -0.38077
H         -0.50886       -0.88203       -0.38237
H         -0.50886        0.88203       -0.38237
H         -1.38751        0.00000        2.40844
H          0.69365       -1.20182        2.40561
H          0.69365        1.20182        2.40561
$end

$comment
negative
$end

$xc_functional
C PBE   1.00
X wPBE  1.00
$end

$rem
SYMMETRY_DECOMPOSITION	0
exchange 		general
LRC_DFT                 true
BASIS                   g3large
omega			400
mem_static              760
max_scf_cycles          200
scf_final_print         1
sym_ignore              true
$end

@@@
 
$molecule
0,1
C         -0.00014        0.00000        0.00788
Si        -0.00072        0.00000        1.88383
H          1.01879        0.00000       -0.38077
H         -0.50886       -0.88203       -0.38237
H         -0.50886        0.88203       -0.38237
H         -1.38751        0.00000        2.40844
H          0.69365       -1.20182        2.40561
H          0.69365        1.20182        2.40561
$end

$comment
neutral
$end

$xc_functional
C PBE   1.00
X wPBE  1.00
$end


$rem
SYMMETRY_DECOMPOSITION	0
LRC_DFT                 true
exchange 		general
BASIS                   g3large
omega			400
mem_static              760
max_scf_cycles          200
scf_final_print         1
sym_ignore              true
$end

@@@
 
$molecule
1,2
C         -0.00014        0.00000        0.00788
Si        -0.00072        0.00000        1.88383
H          1.01879        0.00000       -0.38077
H         -0.50886       -0.88203       -0.38237
H         -0.50886        0.88203       -0.38237
H         -1.38751        0.00000        2.40844
H          0.69365       -1.20182        2.40561
H          0.69365        1.20182        2.40561
$end

$comment
positive
$end

$xc_functional
C PBE   1.00
X wPBE  1.00
$end

$rem
SYMMETRY_DECOMPOSITION	0
LRC_DFT                 true
exchange 		general
BASIS                   g3large
omega			400
mem_static              760
max_scf_cycles          200
scf_final_print         1
sym_ignore              true
$end

