 
$molecule
-1,1
C          0.00198        0.00000       -0.00053
C          0.00926        0.00000        1.50578
H          1.01772        0.00000       -0.40152
H         -0.54494       -0.87710       -0.34509
H         -0.54494        0.87710       -0.34509
O          0.92746       -0.00000        2.24319
$end

$comment
negative
$end

$xc_functional
C PBE   1.00
X wPBE  1.00
$end

$rem
SYMMETRY_DECOMPOSITION	0
exchange 		general
LRC_DFT                 true
BASIS                   g3large
omega			1000
mem_static              760
max_scf_cycles          200
scf_final_print         1
sym_ignore              true
$end

@@@
 
$molecule
0,2
C          0.00198        0.00000       -0.00053
C          0.00926        0.00000        1.50578
H          1.01772        0.00000       -0.40152
H         -0.54494       -0.87710       -0.34509
H         -0.54494        0.87710       -0.34509
O          0.92746       -0.00000        2.24319
$end

$comment
neutral
$end

$xc_functional
C PBE   1.00
X wPBE  1.00
$end


$rem
SYMMETRY_DECOMPOSITION	0
LRC_DFT                 true
exchange 		general
BASIS                   g3large
omega			1000
mem_static              760
max_scf_cycles          200
scf_final_print         1
sym_ignore              true
$end

@@@
 
$molecule
1,1
C          0.00198        0.00000       -0.00053
C          0.00926        0.00000        1.50578
H          1.01772        0.00000       -0.40152
H         -0.54494       -0.87710       -0.34509
H         -0.54494        0.87710       -0.34509
O          0.92746       -0.00000        2.24319
$end

$comment
positive
$end

$xc_functional
C PBE   1.00
X wPBE  1.00
$end

$rem
SYMMETRY_DECOMPOSITION	0
LRC_DFT                 true
exchange 		general
BASIS                   g3large
omega			1000
mem_static              760
max_scf_cycles          200
scf_final_print         1
sym_ignore              true
$end

