 
$molecule
-1,2
S          0.01485       -0.01893       -0.01976
O          0.02238       -0.02805        1.46028
C          1.72726       -0.01278       -0.54561
C         -0.35165       -1.69118       -0.54551
H          2.25830       -0.82545       -0.04539
H         -1.37905       -1.90190       -0.24618
H          1.78290       -0.11574       -1.63163
H          2.15053        0.94653       -0.24532
H         -0.26136       -1.76711       -1.63133
H          0.33002       -2.38171       -0.04440
$end

$comment
negative
$end

$xc_functional
C PBE   1.00
X wPBE  1.00
$end

$rem
SYMMETRY_DECOMPOSITION	0
exchange 		general
LRC_DFT                 true
BASIS                   g3large
omega			350
mem_static              760
max_scf_cycles          200
scf_final_print         1
sym_ignore              true
$end

@@@
 
$molecule
0,1
S          0.01485       -0.01893       -0.01976
O          0.02238       -0.02805        1.46028
C          1.72726       -0.01278       -0.54561
C         -0.35165       -1.69118       -0.54551
H          2.25830       -0.82545       -0.04539
H         -1.37905       -1.90190       -0.24618
H          1.78290       -0.11574       -1.63163
H          2.15053        0.94653       -0.24532
H         -0.26136       -1.76711       -1.63133
H          0.33002       -2.38171       -0.04440
$end

$comment
neutral
$end

$xc_functional
C PBE   1.00
X wPBE  1.00
$end


$rem
SYMMETRY_DECOMPOSITION	0
LRC_DFT                 true
exchange 		general
BASIS                   g3large
omega			350
mem_static              760
max_scf_cycles          200
scf_final_print         1
sym_ignore              true
$end

@@@
 
$molecule
1,2
S          0.01485       -0.01893       -0.01976
O          0.02238       -0.02805        1.46028
C          1.72726       -0.01278       -0.54561
C         -0.35165       -1.69118       -0.54551
H          2.25830       -0.82545       -0.04539
H         -1.37905       -1.90190       -0.24618
H          1.78290       -0.11574       -1.63163
H          2.15053        0.94653       -0.24532
H         -0.26136       -1.76711       -1.63133
H          0.33002       -2.38171       -0.04440
$end

$comment
positive
$end

$xc_functional
C PBE   1.00
X wPBE  1.00
$end

$rem
SYMMETRY_DECOMPOSITION	0
LRC_DFT                 true
exchange 		general
BASIS                   g3large
omega			350
mem_static              760
max_scf_cycles          200
scf_final_print         1
sym_ignore              true
$end

