 
$molecule
-1,2
S          0.01268        0.00000        0.01213
C          0.00557        0.00000        1.72917
C          1.72866        0.00000       -0.03989
C          1.27403        0.00000        2.23350
C          2.26623        0.00000        1.21476
H         -0.92648        0.00000        2.26813
H          2.24294        0.00000       -0.98581
H          1.49415        0.00000        3.29057
H          3.32879        0.00000        1.40660
$end

$comment
negative
$end

$xc_functional
C PBE   1.00
X wPBE  1.00
$end

$rem
SYMMETRY_DECOMPOSITION	0
exchange 		general
LRC_DFT                 true
BASIS                   g3large
omega			1000
mem_static              760
max_scf_cycles          200
scf_final_print         1
sym_ignore              true
$end

@@@
 
$molecule
0,1
S          0.01268        0.00000        0.01213
C          0.00557        0.00000        1.72917
C          1.72866        0.00000       -0.03989
C          1.27403        0.00000        2.23350
C          2.26623        0.00000        1.21476
H         -0.92648        0.00000        2.26813
H          2.24294        0.00000       -0.98581
H          1.49415        0.00000        3.29057
H          3.32879        0.00000        1.40660
$end

$comment
neutral
$end

$xc_functional
C PBE   1.00
X wPBE  1.00
$end


$rem
SYMMETRY_DECOMPOSITION	0
LRC_DFT                 true
exchange 		general
BASIS                   g3large
omega			1000
mem_static              760
max_scf_cycles          200
scf_final_print         1
sym_ignore              true
$end

@@@
 
$molecule
1,2
S          0.01268        0.00000        0.01213
C          0.00557        0.00000        1.72917
C          1.72866        0.00000       -0.03989
C          1.27403        0.00000        2.23350
C          2.26623        0.00000        1.21476
H         -0.92648        0.00000        2.26813
H          2.24294        0.00000       -0.98581
H          1.49415        0.00000        3.29057
H          3.32879        0.00000        1.40660
$end

$comment
positive
$end

$xc_functional
C PBE   1.00
X wPBE  1.00
$end

$rem
SYMMETRY_DECOMPOSITION	0
LRC_DFT                 true
exchange 		general
BASIS                   g3large
omega			1000
mem_static              760
max_scf_cycles          200
scf_final_print         1
sym_ignore              true
$end

