 
$molecule
-1,2
C          0.00330        0.00000        0.01264
S          0.00259        0.00000        1.81020
H          1.32804        0.00000        1.98171
H         -1.04144        0.00000       -0.29717
H          0.48038        0.89273       -0.38851
H          0.48038       -0.89273       -0.38850
$end

$comment
negative
$end

$xc_functional
C PBE   1.00
X wPBE  1.00
$end

$rem
SYMMETRY_DECOMPOSITION	0
exchange 		general
LRC_DFT                 true
BASIS                   g3large
omega			410
mem_static              760
max_scf_cycles          200
scf_final_print         1
sym_ignore              true
$end

@@@
 
$molecule
0,1
C          0.00330        0.00000        0.01264
S          0.00259        0.00000        1.81020
H          1.32804        0.00000        1.98171
H         -1.04144        0.00000       -0.29717
H          0.48038        0.89273       -0.38851
H          0.48038       -0.89273       -0.38850
$end

$comment
neutral
$end

$xc_functional
C PBE   1.00
X wPBE  1.00
$end


$rem
SYMMETRY_DECOMPOSITION	0
LRC_DFT                 true
exchange 		general
BASIS                   g3large
omega			410
mem_static              760
max_scf_cycles          200
scf_final_print         1
sym_ignore              true
$end

@@@
 
$molecule
1,2
C          0.00330        0.00000        0.01264
S          0.00259        0.00000        1.81020
H          1.32804        0.00000        1.98171
H         -1.04144        0.00000       -0.29717
H          0.48038        0.89273       -0.38851
H          0.48038       -0.89273       -0.38850
$end

$comment
positive
$end

$xc_functional
C PBE   1.00
X wPBE  1.00
$end

$rem
SYMMETRY_DECOMPOSITION	0
LRC_DFT                 true
exchange 		general
BASIS                   g3large
omega			410
mem_static              760
max_scf_cycles          200
scf_final_print         1
sym_ignore              true
$end

