 
$molecule
-1,2
C         -0.00246        0.00000        0.73147
O          1.22424        0.00000        0.00000
C         -0.00246        0.00000       -0.73147
H         -0.21984        0.91753        1.26714
H         -0.21984       -0.91753        1.26714
H         -0.21984       -0.91753       -1.26714
H         -0.21984        0.91753       -1.26714
$end

$comment
negative
$end

$xc_functional
C PBE   1.00
X wPBE  1.00
$end

$rem
SYMMETRY_DECOMPOSITION	0
exchange 		general
LRC_DFT                 true
BASIS                   g3large
omega			1000
mem_static              760
max_scf_cycles          200
scf_final_print         1
sym_ignore              true
$end

@@@
 
$molecule
0,1
C         -0.00246        0.00000        0.73147
O          1.22424        0.00000        0.00000
C         -0.00246        0.00000       -0.73147
H         -0.21984        0.91753        1.26714
H         -0.21984       -0.91753        1.26714
H         -0.21984       -0.91753       -1.26714
H         -0.21984        0.91753       -1.26714
$end

$comment
neutral
$end

$xc_functional
C PBE   1.00
X wPBE  1.00
$end


$rem
SYMMETRY_DECOMPOSITION	0
LRC_DFT                 true
exchange 		general
BASIS                   g3large
omega			1000
mem_static              760
max_scf_cycles          200
scf_final_print         1
sym_ignore              true
$end

@@@
 
$molecule
1,2
C         -0.00246        0.00000        0.73147
O          1.22424        0.00000        0.00000
C         -0.00246        0.00000       -0.73147
H         -0.21984        0.91753        1.26714
H         -0.21984       -0.91753        1.26714
H         -0.21984       -0.91753       -1.26714
H         -0.21984        0.91753       -1.26714
$end

$comment
positive
$end

$xc_functional
C PBE   1.00
X wPBE  1.00
$end

$rem
SYMMETRY_DECOMPOSITION	0
LRC_DFT                 true
exchange 		general
BASIS                   g3large
omega			1000
mem_static              760
max_scf_cycles          200
scf_final_print         1
sym_ignore              true
$end

