 
$molecule
-1,2
C         -0.00688        0.00000       -0.00103
O          0.00024        0.00000        1.17952
F          1.17054        0.00000       -0.69165
C         -1.16457        0.00000       -0.94447
H         -2.09537        0.00000       -0.38705
H         -1.11032        0.87798       -1.58769
H         -1.11032       -0.87798       -1.58769
$end

$comment
negative
$end

$xc_functional
C PBE   1.00
X wPBE  1.00
$end

$rem
SYMMETRY_DECOMPOSITION	0
exchange 		general
LRC_DFT                 true
BASIS                   g3large
omega			500
mem_static              760
max_scf_cycles          200
scf_final_print         1
sym_ignore              true
$end

@@@
 
$molecule
0,1
C         -0.00688        0.00000       -0.00103
O          0.00024        0.00000        1.17952
F          1.17054        0.00000       -0.69165
C         -1.16457        0.00000       -0.94447
H         -2.09537        0.00000       -0.38705
H         -1.11032        0.87798       -1.58769
H         -1.11032       -0.87798       -1.58769
$end

$comment
neutral
$end

$xc_functional
C PBE   1.00
X wPBE  1.00
$end


$rem
SYMMETRY_DECOMPOSITION	0
LRC_DFT                 true
exchange 		general
BASIS                   g3large
omega			500
mem_static              760
max_scf_cycles          200
scf_final_print         1
sym_ignore              true
$end

@@@
 
$molecule
1,2
C         -0.00688        0.00000       -0.00103
O          0.00024        0.00000        1.17952
F          1.17054        0.00000       -0.69165
C         -1.16457        0.00000       -0.94447
H         -2.09537        0.00000       -0.38705
H         -1.11032        0.87798       -1.58769
H         -1.11032       -0.87798       -1.58769
$end

$comment
positive
$end

$xc_functional
C PBE   1.00
X wPBE  1.00
$end

$rem
SYMMETRY_DECOMPOSITION	0
LRC_DFT                 true
exchange 		general
BASIS                   g3large
omega			500
mem_static              760
max_scf_cycles          200
scf_final_print         1
sym_ignore              true
$end

