 
$molecule
-1,2
N          0.01062        0.01522        0.00314
N          0.01604       -0.00895        1.43418
H          0.94544       -0.00624       -0.38982
H         -0.44157        0.86878       -0.29463
H          0.84803        0.41787        1.82730
H         -0.01812       -0.97427        1.73195
$end

$comment
negative
$end

$xc_functional
C PBE   1.00
X wPBE  1.00
$end

$rem
SYMMETRY_DECOMPOSITION	0
exchange 		general
LRC_DFT                 true
BASIS                   g3large
omega			100
mem_static              760
max_scf_cycles          200
scf_final_print         1
sym_ignore              true
$end

@@@
 
$molecule
0,1
N          0.01062        0.01522        0.00314
N          0.01604       -0.00895        1.43418
H          0.94544       -0.00624       -0.38982
H         -0.44157        0.86878       -0.29463
H          0.84803        0.41787        1.82730
H         -0.01812       -0.97427        1.73195
$end

$comment
neutral
$end

$xc_functional
C PBE   1.00
X wPBE  1.00
$end


$rem
SYMMETRY_DECOMPOSITION	0
LRC_DFT                 true
exchange 		general
BASIS                   g3large
omega			100
mem_static              760
max_scf_cycles          200
scf_final_print         1
sym_ignore              true
$end

@@@
 
$molecule
1,2
N          0.01062        0.01522        0.00314
N          0.01604       -0.00895        1.43418
H          0.94544       -0.00624       -0.38982
H         -0.44157        0.86878       -0.29463
H          0.84803        0.41787        1.82730
H         -0.01812       -0.97427        1.73195
$end

$comment
positive
$end

$xc_functional
C PBE   1.00
X wPBE  1.00
$end

$rem
SYMMETRY_DECOMPOSITION	0
LRC_DFT                 true
exchange 		general
BASIS                   g3large
omega			100
mem_static              760
max_scf_cycles          200
scf_final_print         1
sym_ignore              true
$end

