 
$molecule
-1,2
C          0.00234        0.00000        0.00948
C         -0.00535        0.00000        1.33434
C          1.20122        0.00000        2.10811
H          0.92931        0.00000       -0.55323
H         -0.92779        0.00000       -0.54722
H         -0.93135        0.00000        1.90041
N          2.15760        0.00000        2.74468
$end

$comment
negative
$end

$xc_functional
C PBE   1.00
X wPBE  1.00
$end

$rem
SYMMETRY_DECOMPOSITION	0
exchange 		general
LRC_DFT                 true
BASIS                   g3large
omega			600
mem_static              760
max_scf_cycles          200
scf_final_print         1
sym_ignore              true
$end

@@@
 
$molecule
0,1
C          0.00234        0.00000        0.00948
C         -0.00535        0.00000        1.33434
C          1.20122        0.00000        2.10811
H          0.92931        0.00000       -0.55323
H         -0.92779        0.00000       -0.54722
H         -0.93135        0.00000        1.90041
N          2.15760        0.00000        2.74468
$end

$comment
neutral
$end

$xc_functional
C PBE   1.00
X wPBE  1.00
$end


$rem
SYMMETRY_DECOMPOSITION	0
LRC_DFT                 true
exchange 		general
BASIS                   g3large
omega			600
mem_static              760
max_scf_cycles          200
scf_final_print         1
sym_ignore              true
$end

@@@
 
$molecule
1,2
C          0.00234        0.00000        0.00948
C         -0.00535        0.00000        1.33434
C          1.20122        0.00000        2.10811
H          0.92931        0.00000       -0.55323
H         -0.92779        0.00000       -0.54722
H         -0.93135        0.00000        1.90041
N          2.15760        0.00000        2.74468
$end

$comment
positive
$end

$xc_functional
C PBE   1.00
X wPBE  1.00
$end

$rem
SYMMETRY_DECOMPOSITION	0
LRC_DFT                 true
exchange 		general
BASIS                   g3large
omega			600
mem_static              760
max_scf_cycles          200
scf_final_print         1
sym_ignore              true
$end

