 
$molecule
-1,1
C         -0.00138        0.00000       -0.00112
O         -0.00294        0.00000        1.36104
H          1.06676        0.00000       -0.29281
H         -0.43880       -0.90826       -0.43526
H         -0.43880        0.90826       -0.43526
$end

$comment
negative
$end

$xc_functional
C PBE   1.00
X wPBE  1.00
$end

$rem
SYMMETRY_DECOMPOSITION	0
exchange 		general
LRC_DFT                 true
BASIS                   g3large
omega			900
mem_static              760
max_scf_cycles          200
scf_final_print         1
sym_ignore              true
$end

@@@
 
$molecule
0,2
C         -0.00138        0.00000       -0.00112
O         -0.00294        0.00000        1.36104
H          1.06676        0.00000       -0.29281
H         -0.43880       -0.90826       -0.43526
H         -0.43880        0.90826       -0.43526
$end

$comment
neutral
$end

$xc_functional
C PBE   1.00
X wPBE  1.00
$end


$rem
SYMMETRY_DECOMPOSITION	0
LRC_DFT                 true
exchange 		general
BASIS                   g3large
omega			900
mem_static              760
max_scf_cycles          200
scf_final_print         1
sym_ignore              true
$end

@@@
 
$molecule
1,1
C         -0.00138        0.00000       -0.00112
O         -0.00294        0.00000        1.36104
H          1.06676        0.00000       -0.29281
H         -0.43880       -0.90826       -0.43526
H         -0.43880        0.90826       -0.43526
$end

$comment
positive
$end

$xc_functional
C PBE   1.00
X wPBE  1.00
$end

$rem
SYMMETRY_DECOMPOSITION	0
LRC_DFT                 true
exchange 		general
BASIS                   g3large
omega			900
mem_static              760
max_scf_cycles          200
scf_final_print         1
sym_ignore              true
$end

