 
$molecule
0,1
C          0.02060        0.00000        0.56117
C          1.22722        0.78118        1.00597
C          1.22722       -0.78118        1.00597
C         -1.49528       -0.00000        0.33741
C         -0.97090        0.00000        1.73548
H          1.18314        1.24243        2.01799
H          1.72557        1.25567        0.13555
H          1.18314       -1.24243        2.01799
H          1.72557       -1.25567        0.13555
H         -1.68126       -0.96114       -0.18609
H         -1.68126        0.96114       -0.18609
H         -1.23188       -0.97109        2.20954
H         -1.23188        0.97109        2.20954
$end
 
 
$comment
b3lyp opt
$end

$rem
   EXCHANGE B3LYP
   UNRESTRICTED TRUE
   SYMMETRY_DECOMPOSITION	0
   BASIS                   g3large
   JOBTYPE                 opt
   mem_static              760
   max_scf_cycles          200
   scf_final_print         1
   sym_ignore              true
$end

 
@@@
 
$molecule 
READ 
$end 
 
$rem
   EXCHANGE B3LYP
   UNRESTRICTED TRUE
   SYMMETRY_DECOMPOSITION       0
   BASIS                   g3large
   JOBTYPE                 freq
   mem_static              760
   max_scf_cycles          200
   scf_final_print         1
   sym_ignore              true
   JOBTYPE                 freq
   IDERIV 1
   SCF_GUESS READ
$end
