 
$molecule
-1,2
C,0.0705120458,-1.4573954415,0.8284820118
C,0.0706032755,0.0699899665,0.8296505525
S,-0.0772163303,0.6847564096,-0.9073116523
H,-0.0525448241,2.0037488688,-0.6173179623
H,-0.7704122641,0.4525580601,1.4153010181
H,0.9984824652,0.4525675725,1.2647672455
H,0.1578428518,-1.8317736624,1.8546666253
H,-0.8561325083,-1.8543900243,0.4006016721
H,0.9115336364,-1.8543805185,0.2501724526

$end

$comment
negative
$end

$xc_functional
   X HF 1.0
   X BNL 1.0
   C LYP 1.0
$end

$rem
SYMMETRY_DECOMPOSITION	0
exchange 		general
BASIS                   g3large
omega			100
separate_jk		true
mem_static              760
max_scf_cycles          200
scf_final_print         1
sym_ignore              true
$end

@@@
 
$molecule
0,1
C,0.0705120458,-1.4573954415,0.8284820118
C,0.0706032755,0.0699899665,0.8296505525
S,-0.0772163303,0.6847564096,-0.9073116523
H,-0.0525448241,2.0037488688,-0.6173179623
H,-0.7704122641,0.4525580601,1.4153010181
H,0.9984824652,0.4525675725,1.2647672455
H,0.1578428518,-1.8317736624,1.8546666253
H,-0.8561325083,-1.8543900243,0.4006016721
H,0.9115336364,-1.8543805185,0.2501724526

$end

$comment
neutral
$end

$xc_functional
   X HF 1.0
   X BNL 1.0
   C LYP 1.0
$end

$rem
SYMMETRY_DECOMPOSITION	0
exchange 		general
BASIS                   g3large
omega			100
separate_jk		true
mem_static              760
max_scf_cycles          200
scf_final_print         1
sym_ignore              true
$end

@@@
 
$molecule
1,2
C,0.0705120458,-1.4573954415,0.8284820118
C,0.0706032755,0.0699899665,0.8296505525
S,-0.0772163303,0.6847564096,-0.9073116523
H,-0.0525448241,2.0037488688,-0.6173179623
H,-0.7704122641,0.4525580601,1.4153010181
H,0.9984824652,0.4525675725,1.2647672455
H,0.1578428518,-1.8317736624,1.8546666253
H,-0.8561325083,-1.8543900243,0.4006016721
H,0.9115336364,-1.8543805185,0.2501724526

$end

$comment
positive
$end

$xc_functional
   X HF 1.0
   X BNL 1.0
   C LYP 1.0
$end

$rem
SYMMETRY_DECOMPOSITION	0
exchange 		general
BASIS                   g3large
omega			100
separate_jk		true
mem_static              760
max_scf_cycles          200
scf_final_print         1
sym_ignore              true
$end

