 
$molecule
-1,2
O          0.00814        0.00000        0.00516
C          0.00087        0.00000        1.34887
O          0.97562        0.00000        2.04328
H          0.93182        0.00000       -0.28901
H         -1.03312        0.00000        1.71242
$end

$comment
negative
$end

$xc_functional
C PBE   1.00
X wPBE  1.00
$end

$rem
SYMMETRY_DECOMPOSITION	0
exchange 		general
LRC_DFT                 true
BASIS                   g3large
omega			800
mem_static              760
max_scf_cycles          200
scf_final_print         1
sym_ignore              true
$end

@@@
 
$molecule
0,1
O          0.00814        0.00000        0.00516
C          0.00087        0.00000        1.34887
O          0.97562        0.00000        2.04328
H          0.93182        0.00000       -0.28901
H         -1.03312        0.00000        1.71242
$end

$comment
neutral
$end

$xc_functional
C PBE   1.00
X wPBE  1.00
$end


$rem
SYMMETRY_DECOMPOSITION	0
LRC_DFT                 true
exchange 		general
BASIS                   g3large
omega			800
mem_static              760
max_scf_cycles          200
scf_final_print         1
sym_ignore              true
$end

@@@
 
$molecule
1,2
O          0.00814        0.00000        0.00516
C          0.00087        0.00000        1.34887
O          0.97562        0.00000        2.04328
H          0.93182        0.00000       -0.28901
H         -1.03312        0.00000        1.71242
$end

$comment
positive
$end

$xc_functional
C PBE   1.00
X wPBE  1.00
$end

$rem
SYMMETRY_DECOMPOSITION	0
LRC_DFT                 true
exchange 		general
BASIS                   g3large
omega			800
mem_static              760
max_scf_cycles          200
scf_final_print         1
sym_ignore              true
$end

