 
$molecule
-1,1
Si         0.00013        0.00000       -0.00602
H          1.41104        0.00000       -0.45872
H         -0.70558       -1.22188       -0.45876
H         -0.70558        1.22188       -0.45876
$end

$comment
negative
$end

$xc_functional
C PBE   1.00
X wPBE  1.00
$end

$rem
SYMMETRY_DECOMPOSITION	0
exchange 		general
LRC_DFT                 true
BASIS                   g3large
omega			1000
mem_static              760
max_scf_cycles          200
scf_final_print         1
sym_ignore              true
$end

@@@
 
$molecule
0,2
Si         0.00013        0.00000       -0.00602
H          1.41104        0.00000       -0.45872
H         -0.70558       -1.22188       -0.45876
H         -0.70558        1.22188       -0.45876
$end

$comment
neutral
$end

$xc_functional
C PBE   1.00
X wPBE  1.00
$end


$rem
SYMMETRY_DECOMPOSITION	0
LRC_DFT                 true
exchange 		general
BASIS                   g3large
omega			1000
mem_static              760
max_scf_cycles          200
scf_final_print         1
sym_ignore              true
$end

@@@
 
$molecule
1,1
Si         0.00013        0.00000       -0.00602
H          1.41104        0.00000       -0.45872
H         -0.70558       -1.22188       -0.45876
H         -0.70558        1.22188       -0.45876
$end

$comment
positive
$end

$xc_functional
C PBE   1.00
X wPBE  1.00
$end

$rem
SYMMETRY_DECOMPOSITION	0
LRC_DFT                 true
exchange 		general
BASIS                   g3large
omega			1000
mem_static              760
max_scf_cycles          200
scf_final_print         1
sym_ignore              true
$end

