 
$molecule
-1,2
C          0.00532        0.00000        0.00585
S          0.00983        0.00000        1.81863
C          1.79532        0.00000        2.12398
H         -1.03536        0.00000       -0.31165
H          0.49289        0.89078       -0.38854
H          0.49289       -0.89078       -0.38854
H          1.93366        0.00000        3.20325
H          2.26564       -0.89107        1.71013
H          2.26564        0.89107        1.71013
$end

$comment
negative
$end

$xc_functional
C PBE   1.00
X wPBE  1.00
$end

$rem
SYMMETRY_DECOMPOSITION	0
exchange 		general
LRC_DFT                 true
BASIS                   g3large
omega			300
mem_static              760
max_scf_cycles          200
scf_final_print         1
sym_ignore              true
$end

@@@
 
$molecule
0,1
C          0.00532        0.00000        0.00585
S          0.00983        0.00000        1.81863
C          1.79532        0.00000        2.12398
H         -1.03536        0.00000       -0.31165
H          0.49289        0.89078       -0.38854
H          0.49289       -0.89078       -0.38854
H          1.93366        0.00000        3.20325
H          2.26564       -0.89107        1.71013
H          2.26564        0.89107        1.71013
$end

$comment
neutral
$end

$xc_functional
C PBE   1.00
X wPBE  1.00
$end


$rem
SYMMETRY_DECOMPOSITION	0
LRC_DFT                 true
exchange 		general
BASIS                   g3large
omega			300
mem_static              760
max_scf_cycles          200
scf_final_print         1
sym_ignore              true
$end

@@@
 
$molecule
1,2
C          0.00532        0.00000        0.00585
S          0.00983        0.00000        1.81863
C          1.79532        0.00000        2.12398
H         -1.03536        0.00000       -0.31165
H          0.49289        0.89078       -0.38854
H          0.49289       -0.89078       -0.38854
H          1.93366        0.00000        3.20325
H          2.26564       -0.89107        1.71013
H          2.26564        0.89107        1.71013
$end

$comment
positive
$end

$xc_functional
C PBE   1.00
X wPBE  1.00
$end

$rem
SYMMETRY_DECOMPOSITION	0
LRC_DFT                 true
exchange 		general
BASIS                   g3large
omega			300
mem_static              760
max_scf_cycles          200
scf_final_print         1
sym_ignore              true
$end

