 
$molecule
-1,2
C         -0.00497        0.00000       -0.00407
C          0.00126        0.00000        1.52588
N          1.32056        0.00000        2.15998
H         -1.02456        0.00000       -0.39599
H          0.50504        0.88224       -0.39662
H          0.50504       -0.88224       -0.39662
H         -0.54136       -0.87252        1.89573
H         -0.54136        0.87252        1.89573
H          1.85670        0.81443        1.88548
H          1.85670       -0.81443        1.88548
$end

$comment
negative
$end

$xc_functional
C PBE   1.00
X wPBE  1.00
$end

$rem
SYMMETRY_DECOMPOSITION	0
exchange 		general
LRC_DFT                 true
BASIS                   g3large
omega			300
mem_static              760
max_scf_cycles          200
scf_final_print         1
sym_ignore              true
$end

@@@
 
$molecule
0,1
C         -0.00497        0.00000       -0.00407
C          0.00126        0.00000        1.52588
N          1.32056        0.00000        2.15998
H         -1.02456        0.00000       -0.39599
H          0.50504        0.88224       -0.39662
H          0.50504       -0.88224       -0.39662
H         -0.54136       -0.87252        1.89573
H         -0.54136        0.87252        1.89573
H          1.85670        0.81443        1.88548
H          1.85670       -0.81443        1.88548
$end

$comment
neutral
$end

$xc_functional
C PBE   1.00
X wPBE  1.00
$end


$rem
SYMMETRY_DECOMPOSITION	0
LRC_DFT                 true
exchange 		general
BASIS                   g3large
omega			300
mem_static              760
max_scf_cycles          200
scf_final_print         1
sym_ignore              true
$end

@@@
 
$molecule
1,2
C         -0.00497        0.00000       -0.00407
C          0.00126        0.00000        1.52588
N          1.32056        0.00000        2.15998
H         -1.02456        0.00000       -0.39599
H          0.50504        0.88224       -0.39662
H          0.50504       -0.88224       -0.39662
H         -0.54136       -0.87252        1.89573
H         -0.54136        0.87252        1.89573
H          1.85670        0.81443        1.88548
H          1.85670       -0.81443        1.88548
$end

$comment
positive
$end

$xc_functional
C PBE   1.00
X wPBE  1.00
$end

$rem
SYMMETRY_DECOMPOSITION	0
LRC_DFT                 true
exchange 		general
BASIS                   g3large
omega			300
mem_static              760
max_scf_cycles          200
scf_final_print         1
sym_ignore              true
$end

