 
$molecule
-1,2
O          0.00000        0.00000        0.00923
C          0.00000        0.00000        1.21875
C          1.28838        0.00000        2.01346
C         -1.28838        0.00000        2.01346
H          2.14211        0.00000        1.34168
H         -2.14211        0.00000        1.34168
H          1.33243       -0.87648        2.66348
H          1.33243        0.87648        2.66348
H         -1.33243        0.87648        2.66348
H         -1.33243       -0.87648        2.66348
$end

$comment
negative
$end

$xc_functional
C PBE   1.00
X wPBE  1.00
$end

$rem
SYMMETRY_DECOMPOSITION	0
exchange 		general
LRC_DFT                 true
BASIS                   g3large
omega			xOMEGA
mem_static              760
max_scf_cycles          200
scf_final_print         1
sym_ignore              true
$end

@@@
 
$molecule
0,1
O          0.00000        0.00000        0.00923
C          0.00000        0.00000        1.21875
C          1.28838        0.00000        2.01346
C         -1.28838        0.00000        2.01346
H          2.14211        0.00000        1.34168
H         -2.14211        0.00000        1.34168
H          1.33243       -0.87648        2.66348
H          1.33243        0.87648        2.66348
H         -1.33243        0.87648        2.66348
H         -1.33243       -0.87648        2.66348
$end

$comment
neutral
$end

$xc_functional
C PBE   1.00
X wPBE  1.00
$end


$rem
SYMMETRY_DECOMPOSITION	0
LRC_DFT                 true
exchange 		general
BASIS                   g3large
omega			xOMEGA
mem_static              760
max_scf_cycles          200
scf_final_print         1
sym_ignore              true
$end

@@@
 
$molecule
1,2
O          0.00000        0.00000        0.00923
C          0.00000        0.00000        1.21875
C          1.28838        0.00000        2.01346
C         -1.28838        0.00000        2.01346
H          2.14211        0.00000        1.34168
H         -2.14211        0.00000        1.34168
H          1.33243       -0.87648        2.66348
H          1.33243        0.87648        2.66348
H         -1.33243        0.87648        2.66348
H         -1.33243       -0.87648        2.66348
$end

$comment
positive
$end

$xc_functional
C PBE   1.00
X wPBE  1.00
$end

$rem
SYMMETRY_DECOMPOSITION	0
LRC_DFT                 true
exchange 		general
BASIS                   g3large
omega			xOMEGA
mem_static              760
max_scf_cycles          200
scf_final_print         1
sym_ignore              true
$end

