 
$molecule
-1,2
S          0.00927        0.00000        0.00544
O          0.00772        0.00000        1.43986
O          1.26183        0.00000       -0.69355
$end

$comment
negative
$end

$xc_functional
C PBE   1.00
X wPBE  1.00
$end

$rem
SYMMETRY_DECOMPOSITION	0
exchange 		general
LRC_DFT                 true
BASIS                   g3large
omega			600
mem_static              760
max_scf_cycles          200
scf_final_print         1
sym_ignore              true
$end

@@@
 
$molecule
0,1
S          0.00927        0.00000        0.00544
O          0.00772        0.00000        1.43986
O          1.26183        0.00000       -0.69355
$end

$comment
neutral
$end

$xc_functional
C PBE   1.00
X wPBE  1.00
$end


$rem
SYMMETRY_DECOMPOSITION	0
LRC_DFT                 true
exchange 		general
BASIS                   g3large
omega			600
mem_static              760
max_scf_cycles          200
scf_final_print         1
sym_ignore              true
$end

@@@
 
$molecule
1,2
S          0.00927        0.00000        0.00544
O          0.00772        0.00000        1.43986
O          1.26183        0.00000       -0.69355
$end

$comment
positive
$end

$xc_functional
C PBE   1.00
X wPBE  1.00
$end

$rem
SYMMETRY_DECOMPOSITION	0
LRC_DFT                 true
exchange 		general
BASIS                   g3large
omega			600
mem_static              760
max_scf_cycles          200
scf_final_print         1
sym_ignore              true
$end

