 
$molecule
-1,2
C         -0.00216        0.00000        0.00226
C          1.23793        0.00000        0.88198
C         -1.26545        0.00000        0.83395
H         -0.00573       -0.87654       -0.65022
H         -0.00573        0.87654       -0.65022
H          2.14538        0.00000        0.27675
Cl        -2.72165       -0.00000       -0.17918
H          1.26901        0.88230        1.52576
H          1.26901       -0.88230        1.52576
H         -1.32169       -0.88387        1.46940
H         -1.32169        0.88387        1.46940
$end

$comment
negative
$end

$xc_functional
C PBE   1.00
X wPBE  1.00
$end

$rem
SYMMETRY_DECOMPOSITION	0
exchange 		general
LRC_DFT                 true
BASIS                   g3large
omega			380
mem_static              760
max_scf_cycles          200
scf_final_print         1
sym_ignore              true
$end

@@@
 
$molecule
0,1
C         -0.00216        0.00000        0.00226
C          1.23793        0.00000        0.88198
C         -1.26545        0.00000        0.83395
H         -0.00573       -0.87654       -0.65022
H         -0.00573        0.87654       -0.65022
H          2.14538        0.00000        0.27675
Cl        -2.72165       -0.00000       -0.17918
H          1.26901        0.88230        1.52576
H          1.26901       -0.88230        1.52576
H         -1.32169       -0.88387        1.46940
H         -1.32169        0.88387        1.46940
$end

$comment
neutral
$end

$xc_functional
C PBE   1.00
X wPBE  1.00
$end


$rem
SYMMETRY_DECOMPOSITION	0
LRC_DFT                 true
exchange 		general
BASIS                   g3large
omega			380
mem_static              760
max_scf_cycles          200
scf_final_print         1
sym_ignore              true
$end

@@@
 
$molecule
1,2
C         -0.00216        0.00000        0.00226
C          1.23793        0.00000        0.88198
C         -1.26545        0.00000        0.83395
H         -0.00573       -0.87654       -0.65022
H         -0.00573        0.87654       -0.65022
H          2.14538        0.00000        0.27675
Cl        -2.72165       -0.00000       -0.17918
H          1.26901        0.88230        1.52576
H          1.26901       -0.88230        1.52576
H         -1.32169       -0.88387        1.46940
H         -1.32169        0.88387        1.46940
$end

$comment
positive
$end

$xc_functional
C PBE   1.00
X wPBE  1.00
$end

$rem
SYMMETRY_DECOMPOSITION	0
LRC_DFT                 true
exchange 		general
BASIS                   g3large
omega			380
mem_static              760
max_scf_cycles          200
scf_final_print         1
sym_ignore              true
$end

