 
$molecule
-1,2
N         -0.00003        0.00000       -0.03208
H          0.94356        0.00000       -0.38725
H         -0.47177       -0.81721       -0.38724
H         -0.47177        0.81721       -0.38724
$end

$comment
negative
$end

$xc_functional
C PBE   1.00
X wPBE  1.00
$end

$rem
SYMMETRY_DECOMPOSITION	0
exchange 		general
LRC_DFT                 true
BASIS                   g3large
omega			450
mem_static              760
max_scf_cycles          200
scf_final_print         1
sym_ignore              true
$end

@@@
 
$molecule
0,1
N         -0.00003        0.00000       -0.03208
H          0.94356        0.00000       -0.38725
H         -0.47177       -0.81721       -0.38724
H         -0.47177        0.81721       -0.38724
$end

$comment
neutral
$end

$xc_functional
C PBE   1.00
X wPBE  1.00
$end


$rem
SYMMETRY_DECOMPOSITION	0
LRC_DFT                 true
exchange 		general
BASIS                   g3large
omega			450
mem_static              760
max_scf_cycles          200
scf_final_print         1
sym_ignore              true
$end

@@@
 
$molecule
1,2
N         -0.00003        0.00000       -0.03208
H          0.94356        0.00000       -0.38725
H         -0.47177       -0.81721       -0.38724
H         -0.47177        0.81721       -0.38724
$end

$comment
positive
$end

$xc_functional
C PBE   1.00
X wPBE  1.00
$end

$rem
SYMMETRY_DECOMPOSITION	0
LRC_DFT                 true
exchange 		general
BASIS                   g3large
omega			450
mem_static              760
max_scf_cycles          200
scf_final_print         1
sym_ignore              true
$end

