 
$molecule
-1,2
C          0.02060        0.00000        0.56117
C          1.22722        0.78118        1.00597
C          1.22722       -0.78118        1.00597
C         -1.49528       -0.00000        0.33741
C         -0.97090        0.00000        1.73548
H          1.18314        1.24243        2.01799
H          1.72557        1.25567        0.13555
H          1.18314       -1.24243        2.01799
H          1.72557       -1.25567        0.13555
H         -1.68126       -0.96114       -0.18609
H         -1.68126        0.96114       -0.18609
H         -1.23188       -0.97109        2.20954
H         -1.23188        0.97109        2.20954
$end

$comment
negative
$end

$xc_functional
C PBE   1.00
X wPBE  1.00
$end

$rem
SYMMETRY_DECOMPOSITION	0
exchange 		general
LRC_DFT                 true
BASIS                   g3large
omega		        1	
mem_static              760
max_scf_cycles          200
scf_final_print         1
sym_ignore              true
$end

@@@
 
$molecule
0,1
C          0.02060        0.00000        0.56117
C          1.22722        0.78118        1.00597
C          1.22722       -0.78118        1.00597
C         -1.49528       -0.00000        0.33741
C         -0.97090        0.00000        1.73548
H          1.18314        1.24243        2.01799
H          1.72557        1.25567        0.13555
H          1.18314       -1.24243        2.01799
H          1.72557       -1.25567        0.13555
H         -1.68126       -0.96114       -0.18609
H         -1.68126        0.96114       -0.18609
H         -1.23188       -0.97109        2.20954
H         -1.23188        0.97109        2.20954
$end

$comment
neutral
$end

$xc_functional
C PBE   1.00
X wPBE  1.00
$end


$rem
SYMMETRY_DECOMPOSITION	0
LRC_DFT                 true
exchange 		general
BASIS                   g3large
omega			1
mem_static              760
max_scf_cycles          200
scf_final_print         1
sym_ignore              true
$end

@@@
 
$molecule
1,2
C          0.02060        0.00000        0.56117
C          1.22722        0.78118        1.00597
C          1.22722       -0.78118        1.00597
C         -1.49528       -0.00000        0.33741
C         -0.97090        0.00000        1.73548
H          1.18314        1.24243        2.01799
H          1.72557        1.25567        0.13555
H          1.18314       -1.24243        2.01799
H          1.72557       -1.25567        0.13555
H         -1.68126       -0.96114       -0.18609
H         -1.68126        0.96114       -0.18609
H         -1.23188       -0.97109        2.20954
H         -1.23188        0.97109        2.20954
$end

$comment
positive
$end

$xc_functional
C PBE   1.00
X wPBE  1.00
$end

$rem
SYMMETRY_DECOMPOSITION	0
LRC_DFT                 true
exchange 		general
BASIS                   g3large
omega			1
mem_static              760
max_scf_cycles          200
scf_final_print         1
sym_ignore              true
$end

