 
$molecule
-1,2
C         -0.00010        0.00000        0.00016
F          0.00001        0.00000        1.32510
F          1.24924        0.00000       -0.44177
F         -0.62457       -1.08180       -0.44175
F         -0.62457        1.08180       -0.44175
$end

$comment
negative
$end

$xc_functional
C PBE   1.00
X wPBE  1.00
$end

$rem
SYMMETRY_DECOMPOSITION	0
exchange 		general
LRC_DFT                 true
BASIS                   g3large
omega			2000
mem_static              760
max_scf_cycles          200
scf_final_print         1
sym_ignore              true
$end

@@@
 
$molecule
0,1
C         -0.00010        0.00000        0.00016
F          0.00001        0.00000        1.32510
F          1.24924        0.00000       -0.44177
F         -0.62457       -1.08180       -0.44175
F         -0.62457        1.08180       -0.44175
$end

$comment
neutral
$end

$xc_functional
C PBE   1.00
X wPBE  1.00
$end


$rem
SYMMETRY_DECOMPOSITION	0
LRC_DFT                 true
exchange 		general
BASIS                   g3large
omega			2000
mem_static              760
max_scf_cycles          200
scf_final_print         1
sym_ignore              true
$end

@@@
 
$molecule
1,2
C         -0.00010        0.00000        0.00016
F          0.00001        0.00000        1.32510
F          1.24924        0.00000       -0.44177
F         -0.62457       -1.08180       -0.44175
F         -0.62457        1.08180       -0.44175
$end

$comment
positive
$end

$xc_functional
C PBE   1.00
X wPBE  1.00
$end

$rem
SYMMETRY_DECOMPOSITION	0
LRC_DFT                 true
exchange 		general
BASIS                   g3large
omega			2000
mem_static              760
max_scf_cycles          200
scf_final_print         1
sym_ignore              true
$end

