 
$molecule
-1,2
C         -0.92327       -0.06201       -0.16074
O         -0.91665        1.13716       -0.16131
O          0.13965       -0.85161        0.02548
H         -1.81248       -0.68540       -0.31477
C          1.39598       -0.18198        0.24289
H          2.12931       -0.97152        0.36828
H          1.64513        0.44124       -0.61343
H          1.34417        0.43880        1.13496
$end

$comment
negative
$end

$xc_functional
C PBE   1.00
X wPBE  1.00
$end

$rem
SYMMETRY_DECOMPOSITION	0
exchange 		general
LRC_DFT                 true
BASIS                   g3large
omega			300
mem_static              760
max_scf_cycles          200
scf_final_print         1
sym_ignore              true
$end

@@@
 
$molecule
0,1
C         -0.92327       -0.06201       -0.16074
O         -0.91665        1.13716       -0.16131
O          0.13965       -0.85161        0.02548
H         -1.81248       -0.68540       -0.31477
C          1.39598       -0.18198        0.24289
H          2.12931       -0.97152        0.36828
H          1.64513        0.44124       -0.61343
H          1.34417        0.43880        1.13496
$end

$comment
neutral
$end

$xc_functional
C PBE   1.00
X wPBE  1.00
$end


$rem
SYMMETRY_DECOMPOSITION	0
LRC_DFT                 true
exchange 		general
BASIS                   g3large
omega			300
mem_static              760
max_scf_cycles          200
scf_final_print         1
sym_ignore              true
$end

@@@
 
$molecule
1,2
C         -0.92327       -0.06201       -0.16074
O         -0.91665        1.13716       -0.16131
O          0.13965       -0.85161        0.02548
H         -1.81248       -0.68540       -0.31477
C          1.39598       -0.18198        0.24289
H          2.12931       -0.97152        0.36828
H          1.64513        0.44124       -0.61343
H          1.34417        0.43880        1.13496
$end

$comment
positive
$end

$xc_functional
C PBE   1.00
X wPBE  1.00
$end

$rem
SYMMETRY_DECOMPOSITION	0
LRC_DFT                 true
exchange 		general
BASIS                   g3large
omega			300
mem_static              760
max_scf_cycles          200
scf_final_print         1
sym_ignore              true
$end

