 
$molecule
-1,2
C          0.74122        0.79408        0.00000
S          0.00000       -0.83559        0.00000
C         -0.74122        0.79408        0.00000
H          1.24913        1.08085       -0.91495
H          1.24913        1.08085        0.91495
H         -1.24913        1.08085        0.91495
H         -1.24913        1.08085       -0.91495
$end

$comment
negative
$end

$xc_functional
C PBE   1.00
X wPBE  1.00
$end

$rem
SYMMETRY_DECOMPOSITION	0
exchange 		general
LRC_DFT                 true
BASIS                   g3large
omega			320
mem_static              760
max_scf_cycles          200
scf_final_print         1
sym_ignore              true
$end

@@@
 
$molecule
0,1
C          0.74122        0.79408        0.00000
S          0.00000       -0.83559        0.00000
C         -0.74122        0.79408        0.00000
H          1.24913        1.08085       -0.91495
H          1.24913        1.08085        0.91495
H         -1.24913        1.08085        0.91495
H         -1.24913        1.08085       -0.91495
$end

$comment
neutral
$end

$xc_functional
C PBE   1.00
X wPBE  1.00
$end


$rem
SYMMETRY_DECOMPOSITION	0
LRC_DFT                 true
exchange 		general
BASIS                   g3large
omega			320
mem_static              760
max_scf_cycles          200
scf_final_print         1
sym_ignore              true
$end

@@@
 
$molecule
1,2
C          0.74122        0.79408        0.00000
S          0.00000       -0.83559        0.00000
C         -0.74122        0.79408        0.00000
H          1.24913        1.08085       -0.91495
H          1.24913        1.08085        0.91495
H         -1.24913        1.08085        0.91495
H         -1.24913        1.08085       -0.91495
$end

$comment
positive
$end

$xc_functional
C PBE   1.00
X wPBE  1.00
$end

$rem
SYMMETRY_DECOMPOSITION	0
LRC_DFT                 true
exchange 		general
BASIS                   g3large
omega			320
mem_static              760
max_scf_cycles          200
scf_final_print         1
sym_ignore              true
$end

