 
$molecule
0,1
C          0.00069        0.00000        0.00637
C         -0.00168        0.00000        1.51256
O          1.34190        0.00000        1.95435
H          1.36065        0.00000        2.91119
H         -0.52791        0.88477        1.88789
H         -0.52791       -0.88477        1.88789
H         -1.01893        0.00000       -0.37843
H          0.51474        0.88275       -0.37198
H          0.51474       -0.88275       -0.37198
$end

$comment
neutral
$end

$xc_functional
C PBE   1.00
X wPBE  1.00
$end


$rem
SYMMETRY_DECOMPOSITION	0
LRC_DFT                 true
exchange 		general
BASIS                   g3large
omega			400 
JOBTYPE                 opt
mem_static              760
max_scf_cycles          200
scf_final_print         1
sym_ignore              true
$end

 
@@@
 
$molecule 
READ 
$end 
 
$xc_functional
C PBE   1.00
X wPBE  1.00
$end


$rem
SYMMETRY_DECOMPOSITION	0
LRC_DFT                 true
exchange 		general
BASIS                   g3large
omega			400 
JOBTYPE                 freq
IDERIV 1
SCF_GUESS READ
mem_static              760
max_scf_cycles          200
scf_final_print         1
sym_ignore              true
$end

