 
$molecule
-1,2
O          0.00000        0.00000        0.00483
C          1.09312        0.00000        0.81531
C         -1.09312        0.00000        0.81531
C          0.71620        0.00000        2.11647
C         -0.71620        0.00000        2.11647
H          2.04715        0.00000        0.32065
H         -2.04715        0.00000        0.32065
H          1.37031        0.00000        2.97096
H         -1.37031        0.00000        2.97096
$end

$comment
negative
$end

$xc_functional
C PBE   1.00
X wPBE  1.00
$end

$rem
SYMMETRY_DECOMPOSITION	0
exchange 		general
LRC_DFT                 true
BASIS                   g3large
omega			2000
mem_static              760
max_scf_cycles          200
scf_final_print         1
sym_ignore              true
$end

@@@
 
$molecule
0,1
O          0.00000        0.00000        0.00483
C          1.09312        0.00000        0.81531
C         -1.09312        0.00000        0.81531
C          0.71620        0.00000        2.11647
C         -0.71620        0.00000        2.11647
H          2.04715        0.00000        0.32065
H         -2.04715        0.00000        0.32065
H          1.37031        0.00000        2.97096
H         -1.37031        0.00000        2.97096
$end

$comment
neutral
$end

$xc_functional
C PBE   1.00
X wPBE  1.00
$end


$rem
SYMMETRY_DECOMPOSITION	0
LRC_DFT                 true
exchange 		general
BASIS                   g3large
omega			2000
mem_static              760
max_scf_cycles          200
scf_final_print         1
sym_ignore              true
$end

@@@
 
$molecule
1,2
O          0.00000        0.00000        0.00483
C          1.09312        0.00000        0.81531
C         -1.09312        0.00000        0.81531
C          0.71620        0.00000        2.11647
C         -0.71620        0.00000        2.11647
H          2.04715        0.00000        0.32065
H         -2.04715        0.00000        0.32065
H          1.37031        0.00000        2.97096
H         -1.37031        0.00000        2.97096
$end

$comment
positive
$end

$xc_functional
C PBE   1.00
X wPBE  1.00
$end

$rem
SYMMETRY_DECOMPOSITION	0
LRC_DFT                 true
exchange 		general
BASIS                   g3large
omega			2000
mem_static              760
max_scf_cycles          200
scf_final_print         1
sym_ignore              true
$end

