 
$molecule
-1,2
C         -0.00003        0.00000        0.00147
C         -0.00000        0.00000        1.45398
N          0.00004        0.00000        2.59704
H          1.02269        0.00000       -0.36957
H         -0.51135       -0.88570       -0.36966
H         -0.51135        0.88570       -0.36966
$end

$comment
negative
$end

$xc_functional
C PBE   1.00
X wPBE  1.00
$end

$rem
SYMMETRY_DECOMPOSITION	0
exchange 		general
LRC_DFT                 true
BASIS                   g3large
omega			420
mem_static              760
max_scf_cycles          200
scf_final_print         1
sym_ignore              true
$end

@@@
 
$molecule
0,1
C         -0.00003        0.00000        0.00147
C         -0.00000        0.00000        1.45398
N          0.00004        0.00000        2.59704
H          1.02269        0.00000       -0.36957
H         -0.51135       -0.88570       -0.36966
H         -0.51135        0.88570       -0.36966
$end

$comment
neutral
$end

$xc_functional
C PBE   1.00
X wPBE  1.00
$end


$rem
SYMMETRY_DECOMPOSITION	0
LRC_DFT                 true
exchange 		general
BASIS                   g3large
omega			420
mem_static              760
max_scf_cycles          200
scf_final_print         1
sym_ignore              true
$end

@@@
 
$molecule
1,2
C         -0.00003        0.00000        0.00147
C         -0.00000        0.00000        1.45398
N          0.00004        0.00000        2.59704
H          1.02269        0.00000       -0.36957
H         -0.51135       -0.88570       -0.36966
H         -0.51135        0.88570       -0.36966
$end

$comment
positive
$end

$xc_functional
C PBE   1.00
X wPBE  1.00
$end

$rem
SYMMETRY_DECOMPOSITION	0
LRC_DFT                 true
exchange 		general
BASIS                   g3large
omega			420
mem_static              760
max_scf_cycles          200
scf_final_print         1
sym_ignore              true
$end

