 
$molecule
-1,2
O          0.00919        0.00751        0.00254
C         -0.00017       -0.00056        1.43541
H          0.91946       -0.01169       -0.30514
H          0.47825        0.91743        1.79999
C         -1.45992        0.01123        1.85569
C          0.75808       -1.20404        1.98395
H         -1.96351       -0.88793        1.49801
H          0.29542       -2.13153        1.64395
H         -1.97007        0.87779        1.43680
H          1.79846       -1.19940        1.65116
H         -1.54705        0.04929        2.94175
H          0.76051       -1.19782        3.07524
$end

$comment
negative
$end

$xc_functional
C PBE   1.00
X wPBE  1.00
$end

$rem
SYMMETRY_DECOMPOSITION	0
exchange 		general
LRC_DFT                 true
BASIS                   g3large
omega			300
mem_static              760
max_scf_cycles          200
scf_final_print         1
sym_ignore              true
$end

@@@
 
$molecule
0,1
O          0.00919        0.00751        0.00254
C         -0.00017       -0.00056        1.43541
H          0.91946       -0.01169       -0.30514
H          0.47825        0.91743        1.79999
C         -1.45992        0.01123        1.85569
C          0.75808       -1.20404        1.98395
H         -1.96351       -0.88793        1.49801
H          0.29542       -2.13153        1.64395
H         -1.97007        0.87779        1.43680
H          1.79846       -1.19940        1.65116
H         -1.54705        0.04929        2.94175
H          0.76051       -1.19782        3.07524
$end

$comment
neutral
$end

$xc_functional
C PBE   1.00
X wPBE  1.00
$end


$rem
SYMMETRY_DECOMPOSITION	0
LRC_DFT                 true
exchange 		general
BASIS                   g3large
omega			300
mem_static              760
max_scf_cycles          200
scf_final_print         1
sym_ignore              true
$end

@@@
 
$molecule
1,2
O          0.00919        0.00751        0.00254
C         -0.00017       -0.00056        1.43541
H          0.91946       -0.01169       -0.30514
H          0.47825        0.91743        1.79999
C         -1.45992        0.01123        1.85569
C          0.75808       -1.20404        1.98395
H         -1.96351       -0.88793        1.49801
H          0.29542       -2.13153        1.64395
H         -1.97007        0.87779        1.43680
H          1.79846       -1.19940        1.65116
H         -1.54705        0.04929        2.94175
H          0.76051       -1.19782        3.07524
$end

$comment
positive
$end

$xc_functional
C PBE   1.00
X wPBE  1.00
$end

$rem
SYMMETRY_DECOMPOSITION	0
LRC_DFT                 true
exchange 		general
BASIS                   g3large
omega			300
mem_static              760
max_scf_cycles          200
scf_final_print         1
sym_ignore              true
$end

