 
$molecule
-1,2
Si        -0.00000       -0.00000        0.05795
Si         0.00000        0.00000        2.29228
H          1.38673       -0.00000       -0.43020
H         -0.69338       -1.20095       -0.43019
H         -0.69338        1.20095       -0.43019
H         -1.38673       -0.00000        2.78043
H          0.69338       -1.20095        2.78042
H          0.69338        1.20095        2.78042
$end

$comment
negative
$end

$xc_functional
C PBE   1.00
X wPBE  1.00
$end

$rem
SYMMETRY_DECOMPOSITION	0
exchange 		general
LRC_DFT                 true
BASIS                   g3large
omega			340
mem_static              760
max_scf_cycles          200
scf_final_print         1
sym_ignore              true
$end

@@@
 
$molecule
0,1
Si        -0.00000       -0.00000        0.05795
Si         0.00000        0.00000        2.29228
H          1.38673       -0.00000       -0.43020
H         -0.69338       -1.20095       -0.43019
H         -0.69338        1.20095       -0.43019
H         -1.38673       -0.00000        2.78043
H          0.69338       -1.20095        2.78042
H          0.69338        1.20095        2.78042
$end

$comment
neutral
$end

$xc_functional
C PBE   1.00
X wPBE  1.00
$end


$rem
SYMMETRY_DECOMPOSITION	0
LRC_DFT                 true
exchange 		general
BASIS                   g3large
omega			340
mem_static              760
max_scf_cycles          200
scf_final_print         1
sym_ignore              true
$end

@@@
 
$molecule
1,2
Si        -0.00000       -0.00000        0.05795
Si         0.00000        0.00000        2.29228
H          1.38673       -0.00000       -0.43020
H         -0.69338       -1.20095       -0.43019
H         -0.69338        1.20095       -0.43019
H         -1.38673       -0.00000        2.78043
H          0.69338       -1.20095        2.78042
H          0.69338        1.20095        2.78042
$end

$comment
positive
$end

$xc_functional
C PBE   1.00
X wPBE  1.00
$end

$rem
SYMMETRY_DECOMPOSITION	0
LRC_DFT                 true
exchange 		general
BASIS                   g3large
omega			340
mem_static              760
max_scf_cycles          200
scf_final_print         1
sym_ignore              true
$end

