 
$molecule
-1,1
C         -0.00017        0.00000       -0.00233
C          0.00868        0.00000        1.30341
H          0.93029        0.00000       -0.58611
H         -0.92923        0.00000       -0.57859
H          0.72813        0.00000        2.11653
$end

$comment
negative
$end

$xc_functional
C PBE   1.00
X wPBE  1.00
$end

$rem
SYMMETRY_DECOMPOSITION	0
exchange 		general
LRC_DFT                 true
BASIS                   g3large
omega			190
mem_static              760
max_scf_cycles          200
scf_final_print         1
sym_ignore              true
$end

@@@
 
$molecule
0,2
C         -0.00017        0.00000       -0.00233
C          0.00868        0.00000        1.30341
H          0.93029        0.00000       -0.58611
H         -0.92923        0.00000       -0.57859
H          0.72813        0.00000        2.11653
$end

$comment
neutral
$end

$xc_functional
C PBE   1.00
X wPBE  1.00
$end


$rem
SYMMETRY_DECOMPOSITION	0
LRC_DFT                 true
exchange 		general
BASIS                   g3large
omega			190
mem_static              760
max_scf_cycles          200
scf_final_print         1
sym_ignore              true
$end

@@@
 
$molecule
1,1
C         -0.00017        0.00000       -0.00233
C          0.00868        0.00000        1.30341
H          0.93029        0.00000       -0.58611
H         -0.92923        0.00000       -0.57859
H          0.72813        0.00000        2.11653
$end

$comment
positive
$end

$xc_functional
C PBE   1.00
X wPBE  1.00
$end

$rem
SYMMETRY_DECOMPOSITION	0
LRC_DFT                 true
exchange 		general
BASIS                   g3large
omega			190
mem_static              760
max_scf_cycles          200
scf_final_print         1
sym_ignore              true
$end

