 
$molecule
-1,2
C          0.00082        0.00000        0.00436
C         -0.00191        0.00000        1.50155
Cl         1.69538        0.00000       -0.67071
O         -0.92570        0.00000       -0.72585
H         -1.02810        0.00000        1.85970
H          0.52941       -0.87790        1.86662
H          0.52941        0.87790        1.86662
$end

$comment
negative
$end

$xc_functional
C PBE   1.00
X wPBE  1.00
$end

$rem
SYMMETRY_DECOMPOSITION	0
exchange 		general
LRC_DFT                 true
BASIS                   g3large
omega			100
mem_static              760
max_scf_cycles          200
scf_final_print         1
sym_ignore              true
$end

@@@
 
$molecule
0,1
C          0.00082        0.00000        0.00436
C         -0.00191        0.00000        1.50155
Cl         1.69538        0.00000       -0.67071
O         -0.92570        0.00000       -0.72585
H         -1.02810        0.00000        1.85970
H          0.52941       -0.87790        1.86662
H          0.52941        0.87790        1.86662
$end

$comment
neutral
$end

$xc_functional
C PBE   1.00
X wPBE  1.00
$end


$rem
SYMMETRY_DECOMPOSITION	0
LRC_DFT                 true
exchange 		general
BASIS                   g3large
omega			100
mem_static              760
max_scf_cycles          200
scf_final_print         1
sym_ignore              true
$end

@@@
 
$molecule
1,2
C          0.00082        0.00000        0.00436
C         -0.00191        0.00000        1.50155
Cl         1.69538        0.00000       -0.67071
O         -0.92570        0.00000       -0.72585
H         -1.02810        0.00000        1.85970
H          0.52941       -0.87790        1.86662
H          0.52941        0.87790        1.86662
$end

$comment
positive
$end

$xc_functional
C PBE   1.00
X wPBE  1.00
$end

$rem
SYMMETRY_DECOMPOSITION	0
LRC_DFT                 true
exchange 		general
BASIS                   g3large
omega			100
mem_static              760
max_scf_cycles          200
scf_final_print         1
sym_ignore              true
$end

