 
$molecule
-1,2
C         -0.00433        0.00000       -0.00055
O         -0.00795        0.00000        1.20224
O          1.14353        0.00000       -0.72209
H          1.87633        0.00000       -0.08995
C         -1.21576        0.00000       -0.88780
H         -2.11364        0.00000       -0.27921
H         -1.20229        0.87770       -1.53368
H         -1.20229       -0.87770       -1.53368
$end

$comment
negative
$end

$xc_functional
C PBE   1.00
X wPBE  1.00
$end

$rem
SYMMETRY_DECOMPOSITION	0
exchange 		general
LRC_DFT                 true
BASIS                   g3large
omega			600
mem_static              760
max_scf_cycles          200
scf_final_print         1
sym_ignore              true
$end

@@@
 
$molecule
0,1
C         -0.00433        0.00000       -0.00055
O         -0.00795        0.00000        1.20224
O          1.14353        0.00000       -0.72209
H          1.87633        0.00000       -0.08995
C         -1.21576        0.00000       -0.88780
H         -2.11364        0.00000       -0.27921
H         -1.20229        0.87770       -1.53368
H         -1.20229       -0.87770       -1.53368
$end

$comment
neutral
$end

$xc_functional
C PBE   1.00
X wPBE  1.00
$end


$rem
SYMMETRY_DECOMPOSITION	0
LRC_DFT                 true
exchange 		general
BASIS                   g3large
omega			600
mem_static              760
max_scf_cycles          200
scf_final_print         1
sym_ignore              true
$end

@@@
 
$molecule
1,2
C         -0.00433        0.00000       -0.00055
O         -0.00795        0.00000        1.20224
O          1.14353        0.00000       -0.72209
H          1.87633        0.00000       -0.08995
C         -1.21576        0.00000       -0.88780
H         -2.11364        0.00000       -0.27921
H         -1.20229        0.87770       -1.53368
H         -1.20229       -0.87770       -1.53368
$end

$comment
positive
$end

$xc_functional
C PBE   1.00
X wPBE  1.00
$end

$rem
SYMMETRY_DECOMPOSITION	0
LRC_DFT                 true
exchange 		general
BASIS                   g3large
omega			600
mem_static              760
max_scf_cycles          200
scf_final_print         1
sym_ignore              true
$end

