 
$molecule
0,1
C          0.00000        0.00000       -1.45192
C          0.00000        0.00000       -0.12254
H          0.92778        0.00000       -2.01951
H         -0.92778        0.00000       -2.01951
C          1.27109        0.00000        0.67643
H          2.15408        0.00000        0.03271
H          1.31924        0.87967        1.32933
H          1.31924       -0.87967        1.32933
C         -1.27109        0.00000        0.67643
H         -2.15408        0.00000        0.03271
H         -1.31924       -0.87967        1.32933
H         -1.31924        0.87967        1.32933
$end

$comment
neutral
$end

$xc_functional
C PBE   1.00
X wPBE  1.00
$end


$rem
SYMMETRY_DECOMPOSITION	0
LRC_DFT                 true
exchange 		general
BASIS                   g3large
omega			310 
JOBTYPE                 opt
mem_static              760
max_scf_cycles          200
scf_final_print         1
sym_ignore              true
$end

 
@@@
 
$molecule 
READ 
$end 
 
$xc_functional
C PBE   1.00
X wPBE  1.00
$end


$rem
SYMMETRY_DECOMPOSITION	0
LRC_DFT                 true
exchange 		general
BASIS                   g3large
omega			310 
JOBTYPE                 freq
IDERIV 1
SCF_GUESS READ
mem_static              760
max_scf_cycles          200
scf_final_print         1
sym_ignore              true
$end

