 
$molecule
-1,2
C,0.0342806532,0.3974627423,0.7425016446
N,0.0471070071,-0.874619445,0.
C,0.0342806532,0.3974627423,-0.7425016446
H,-0.8865994948,-1.285237551,0.
H,0.9497975775,0.6160289895,1.2875600468
H,0.9497975775,0.6160289895,-1.2875600468
H,-0.8770562739,0.7029813895,1.2546822265
H,-0.8770562739,0.7029813895,-1.2546822265

$end

$comment
negative
$end

$xc_functional
C PBE   1.00
X wPBE  1.00
$end

$rem
SYMMETRY_DECOMPOSITION	0
exchange 		general
LRC_DFT                 true
BASIS                   g3large
omega			900
mem_static              760
max_scf_cycles          200
scf_final_print         1
sym_ignore              true
$end

@@@
 
$molecule
0,1
C,0.0342806532,0.3974627423,0.7425016446
N,0.0471070071,-0.874619445,0.
C,0.0342806532,0.3974627423,-0.7425016446
H,-0.8865994948,-1.285237551,0.
H,0.9497975775,0.6160289895,1.2875600468
H,0.9497975775,0.6160289895,-1.2875600468
H,-0.8770562739,0.7029813895,1.2546822265
H,-0.8770562739,0.7029813895,-1.2546822265

$end

$comment
neutral
$end

$xc_functional
C PBE   1.00
X wPBE  1.00
$end


$rem
SYMMETRY_DECOMPOSITION	0
LRC_DFT                 true
exchange 		general
BASIS                   g3large
omega			900
mem_static              760
max_scf_cycles          200
scf_final_print         1
sym_ignore              true
$end

@@@
 
$molecule
1,2
C,0.0342806532,0.3974627423,0.7425016446
N,0.0471070071,-0.874619445,0.
C,0.0342806532,0.3974627423,-0.7425016446
H,-0.8865994948,-1.285237551,0.
H,0.9497975775,0.6160289895,1.2875600468
H,0.9497975775,0.6160289895,-1.2875600468
H,-0.8770562739,0.7029813895,1.2546822265
H,-0.8770562739,0.7029813895,-1.2546822265

$end

$comment
positive
$end

$xc_functional
C PBE   1.00
X wPBE  1.00
$end

$rem
SYMMETRY_DECOMPOSITION	0
LRC_DFT                 true
exchange 		general
BASIS                   g3large
omega			900
mem_static              760
max_scf_cycles          200
scf_final_print         1
sym_ignore              true
$end

