 
$molecule
-1,1
C          0.00034        0.00000       -0.00234
C          0.00795        0.00000        1.30335
H          0.93102        0.00000       -0.58577
H         -0.92815        0.00000       -0.57958
H          0.72652        0.00000        2.11724
$end

$comment
negative
$end

$xc_functional
C PBE   1.00
X wPBE  1.00
$end

$rem
SYMMETRY_DECOMPOSITION	0
exchange 		general
LRC_DFT                 true
BASIS                   g3large
omega			900
mem_static              760
max_scf_cycles          200
scf_final_print         1
sym_ignore              true
$end

@@@
 
$molecule
0,2
C          0.00034        0.00000       -0.00234
C          0.00795        0.00000        1.30335
H          0.93102        0.00000       -0.58577
H         -0.92815        0.00000       -0.57958
H          0.72652        0.00000        2.11724
$end

$comment
neutral
$end

$xc_functional
C PBE   1.00
X wPBE  1.00
$end


$rem
SYMMETRY_DECOMPOSITION	0
LRC_DFT                 true
exchange 		general
BASIS                   g3large
omega			900
mem_static              760
max_scf_cycles          200
scf_final_print         1
sym_ignore              true
$end

@@@
 
$molecule
1,1
C          0.00034        0.00000       -0.00234
C          0.00795        0.00000        1.30335
H          0.93102        0.00000       -0.58577
H         -0.92815        0.00000       -0.57958
H          0.72652        0.00000        2.11724
$end

$comment
positive
$end

$xc_functional
C PBE   1.00
X wPBE  1.00
$end

$rem
SYMMETRY_DECOMPOSITION	0
LRC_DFT                 true
exchange 		general
BASIS                   g3large
omega			900
mem_static              760
max_scf_cycles          200
scf_final_print         1
sym_ignore              true
$end

