 
$molecule
-1,1
C          0.00085        0.00000        0.00004
C          0.00858        0.00000        1.30115
H          0.92469        0.00000       -0.58093
H         -0.91994        0.00000       -0.57508
H          0.72350        0.00000        2.10772
$end

$comment
negative
$end

$xc_functional
C PBE   1.00
X wPBE  1.00
$end

$rem
SYMMETRY_DECOMPOSITION	0
exchange 		general
LRC_DFT                 true
BASIS                   g3large
omega			1000
mem_static              760
max_scf_cycles          200
scf_final_print         1
sym_ignore              true
$end

@@@
 
$molecule
0,2
C          0.00085        0.00000        0.00004
C          0.00858        0.00000        1.30115
H          0.92469        0.00000       -0.58093
H         -0.91994        0.00000       -0.57508
H          0.72350        0.00000        2.10772
$end

$comment
neutral
$end

$xc_functional
C PBE   1.00
X wPBE  1.00
$end


$rem
SYMMETRY_DECOMPOSITION	0
LRC_DFT                 true
exchange 		general
BASIS                   g3large
omega			1000
mem_static              760
max_scf_cycles          200
scf_final_print         1
sym_ignore              true
$end

@@@
 
$molecule
1,1
C          0.00085        0.00000        0.00004
C          0.00858        0.00000        1.30115
H          0.92469        0.00000       -0.58093
H         -0.91994        0.00000       -0.57508
H          0.72350        0.00000        2.10772
$end

$comment
positive
$end

$xc_functional
C PBE   1.00
X wPBE  1.00
$end

$rem
SYMMETRY_DECOMPOSITION	0
LRC_DFT                 true
exchange 		general
BASIS                   g3large
omega			1000
mem_static              760
max_scf_cycles          200
scf_final_print         1
sym_ignore              true
$end

