 
$molecule
-1,2
C          0.00543        0.00000        0.00109
C          0.00074        0.00000        1.31834
Cl         1.44660        0.00000       -0.93685
H         -0.89497        0.00000       -0.60160
H          0.91877        0.00000        1.89436
H         -0.94360        0.00000        1.85059
$end

$comment
negative
$end

$xc_functional
C PBE   1.00
X wPBE  1.00
$end

$rem
SYMMETRY_DECOMPOSITION	0
exchange 		general
LRC_DFT                 true
BASIS                   g3large
omega			410
mem_static              760
max_scf_cycles          200
scf_final_print         1
sym_ignore              true
$end

@@@
 
$molecule
0,1
C          0.00543        0.00000        0.00109
C          0.00074        0.00000        1.31834
Cl         1.44660        0.00000       -0.93685
H         -0.89497        0.00000       -0.60160
H          0.91877        0.00000        1.89436
H         -0.94360        0.00000        1.85059
$end

$comment
neutral
$end

$xc_functional
C PBE   1.00
X wPBE  1.00
$end


$rem
SYMMETRY_DECOMPOSITION	0
LRC_DFT                 true
exchange 		general
BASIS                   g3large
omega			410
mem_static              760
max_scf_cycles          200
scf_final_print         1
sym_ignore              true
$end

@@@
 
$molecule
1,2
C          0.00543        0.00000        0.00109
C          0.00074        0.00000        1.31834
Cl         1.44660        0.00000       -0.93685
H         -0.89497        0.00000       -0.60160
H          0.91877        0.00000        1.89436
H         -0.94360        0.00000        1.85059
$end

$comment
positive
$end

$xc_functional
C PBE   1.00
X wPBE  1.00
$end

$rem
SYMMETRY_DECOMPOSITION	0
LRC_DFT                 true
exchange 		general
BASIS                   g3large
omega			410
mem_static              760
max_scf_cycles          200
scf_final_print         1
sym_ignore              true
$end

