 
$molecule
-1,2
O          0.00472        0.00000        0.00228
C         -0.00338        0.00000        1.41829
C          1.30314        0.00000       -0.54639
C         -1.44030        0.00000        1.89779
H          0.53073       -0.88425        1.79235
H          0.53073        0.88425        1.79235
H          1.19977        0.00000       -1.62943
H          1.86838        0.88960       -0.24230
H          1.86838       -0.88960       -0.24230
H         -1.96548        0.88314        1.53483
H         -1.96548       -0.88314        1.53483
H         -1.47724        0.00000        2.98774
$end

$comment
negative
$end

$xc_functional
C PBE   1.00
X wPBE  1.00
$end

$rem
SYMMETRY_DECOMPOSITION	0
exchange 		general
LRC_DFT                 true
BASIS                   g3large
omega			1000
mem_static              760
max_scf_cycles          200
scf_final_print         1
sym_ignore              true
$end

@@@
 
$molecule
0,1
O          0.00472        0.00000        0.00228
C         -0.00338        0.00000        1.41829
C          1.30314        0.00000       -0.54639
C         -1.44030        0.00000        1.89779
H          0.53073       -0.88425        1.79235
H          0.53073        0.88425        1.79235
H          1.19977        0.00000       -1.62943
H          1.86838        0.88960       -0.24230
H          1.86838       -0.88960       -0.24230
H         -1.96548        0.88314        1.53483
H         -1.96548       -0.88314        1.53483
H         -1.47724        0.00000        2.98774
$end

$comment
neutral
$end

$xc_functional
C PBE   1.00
X wPBE  1.00
$end


$rem
SYMMETRY_DECOMPOSITION	0
LRC_DFT                 true
exchange 		general
BASIS                   g3large
omega			1000
mem_static              760
max_scf_cycles          200
scf_final_print         1
sym_ignore              true
$end

@@@
 
$molecule
1,2
O          0.00472        0.00000        0.00228
C         -0.00338        0.00000        1.41829
C          1.30314        0.00000       -0.54639
C         -1.44030        0.00000        1.89779
H          0.53073       -0.88425        1.79235
H          0.53073        0.88425        1.79235
H          1.19977        0.00000       -1.62943
H          1.86838        0.88960       -0.24230
H          1.86838       -0.88960       -0.24230
H         -1.96548        0.88314        1.53483
H         -1.96548       -0.88314        1.53483
H         -1.47724        0.00000        2.98774
$end

$comment
positive
$end

$xc_functional
C PBE   1.00
X wPBE  1.00
$end

$rem
SYMMETRY_DECOMPOSITION	0
LRC_DFT                 true
exchange 		general
BASIS                   g3large
omega			1000
mem_static              760
max_scf_cycles          200
scf_final_print         1
sym_ignore              true
$end

