 
$molecule
-1,2
C          0.00000        0.00000       -1.45157
C          0.00000        0.00000       -0.12288
H          0.92767        0.00000       -2.01861
H         -0.92767        0.00000       -2.01861
C          1.27060        0.00000        0.67623
H          2.15351        0.00000        0.03302
H          1.31823        0.87946        1.32882
H          1.31823       -0.87946        1.32882
C         -1.27060        0.00000        0.67623
H         -2.15351        0.00000        0.03302
H         -1.31823       -0.87946        1.32882
H         -1.31823        0.87946        1.32882
$end

$comment
negative
$end

$xc_functional
C PBE   1.00
X wPBE  1.00
$end

$rem
SYMMETRY_DECOMPOSITION	0
exchange 		general
LRC_DFT                 true
BASIS                   g3large
omega			200
mem_static              760
max_scf_cycles          200
scf_final_print         1
sym_ignore              true
$end

@@@
 
$molecule
0,1
C          0.00000        0.00000       -1.45157
C          0.00000        0.00000       -0.12288
H          0.92767        0.00000       -2.01861
H         -0.92767        0.00000       -2.01861
C          1.27060        0.00000        0.67623
H          2.15351        0.00000        0.03302
H          1.31823        0.87946        1.32882
H          1.31823       -0.87946        1.32882
C         -1.27060        0.00000        0.67623
H         -2.15351        0.00000        0.03302
H         -1.31823       -0.87946        1.32882
H         -1.31823        0.87946        1.32882
$end

$comment
neutral
$end

$xc_functional
C PBE   1.00
X wPBE  1.00
$end


$rem
SYMMETRY_DECOMPOSITION	0
LRC_DFT                 true
exchange 		general
BASIS                   g3large
omega			200
mem_static              760
max_scf_cycles          200
scf_final_print         1
sym_ignore              true
$end

@@@
 
$molecule
1,2
C          0.00000        0.00000       -1.45157
C          0.00000        0.00000       -0.12288
H          0.92767        0.00000       -2.01861
H         -0.92767        0.00000       -2.01861
C          1.27060        0.00000        0.67623
H          2.15351        0.00000        0.03302
H          1.31823        0.87946        1.32882
H          1.31823       -0.87946        1.32882
C         -1.27060        0.00000        0.67623
H         -2.15351        0.00000        0.03302
H         -1.31823       -0.87946        1.32882
H         -1.31823        0.87946        1.32882
$end

$comment
positive
$end

$xc_functional
C PBE   1.00
X wPBE  1.00
$end

$rem
SYMMETRY_DECOMPOSITION	0
LRC_DFT                 true
exchange 		general
BASIS                   g3large
omega			200
mem_static              760
max_scf_cycles          200
scf_final_print         1
sym_ignore              true
$end

