 
$molecule
-1,2
Si        -0.00000        0.00000       -0.00000
Cl        -0.00000       -0.00000        2.09442
Cl         1.97464       -0.00000       -0.69814
Cl        -0.98732        1.71009       -0.69814
Cl        -0.98732       -1.71009       -0.69814
$end

$comment
negative
$end

$xc_functional
C PBE   1.00
X wPBE  1.00
$end

$rem
SYMMETRY_DECOMPOSITION	0
exchange 		general
LRC_DFT                 true
BASIS                   g3large
omega			600
mem_static              760
max_scf_cycles          200
scf_final_print         1
sym_ignore              true
$end

@@@
 
$molecule
0,1
Si        -0.00000        0.00000       -0.00000
Cl        -0.00000       -0.00000        2.09442
Cl         1.97464       -0.00000       -0.69814
Cl        -0.98732        1.71009       -0.69814
Cl        -0.98732       -1.71009       -0.69814
$end

$comment
neutral
$end

$xc_functional
C PBE   1.00
X wPBE  1.00
$end


$rem
SYMMETRY_DECOMPOSITION	0
LRC_DFT                 true
exchange 		general
BASIS                   g3large
omega			600
mem_static              760
max_scf_cycles          200
scf_final_print         1
sym_ignore              true
$end

@@@
 
$molecule
1,2
Si        -0.00000        0.00000       -0.00000
Cl        -0.00000       -0.00000        2.09442
Cl         1.97464       -0.00000       -0.69814
Cl        -0.98732        1.71009       -0.69814
Cl        -0.98732       -1.71009       -0.69814
$end

$comment
positive
$end

$xc_functional
C PBE   1.00
X wPBE  1.00
$end

$rem
SYMMETRY_DECOMPOSITION	0
LRC_DFT                 true
exchange 		general
BASIS                   g3large
omega			600
mem_static              760
max_scf_cycles          200
scf_final_print         1
sym_ignore              true
$end

