 
$molecule
-1,1
C         -0.00176        0.00000        0.00091
S          0.00185        0.00000        1.79845
H          1.04665        0.00000       -0.31214
H         -0.47050        0.89618       -0.40042
H         -0.47049       -0.89618       -0.40042
$end

$comment
negative
$end

$xc_functional
C PBE   1.00
X wPBE  1.00
$end

$rem
SYMMETRY_DECOMPOSITION	0
exchange 		general
LRC_DFT                 true
BASIS                   g3large
omega			100
mem_static              760
max_scf_cycles          200
scf_final_print         1
sym_ignore              true
$end

@@@
 
$molecule
0,2
C         -0.00176        0.00000        0.00091
S          0.00185        0.00000        1.79845
H          1.04665        0.00000       -0.31214
H         -0.47050        0.89618       -0.40042
H         -0.47049       -0.89618       -0.40042
$end

$comment
neutral
$end

$xc_functional
C PBE   1.00
X wPBE  1.00
$end


$rem
SYMMETRY_DECOMPOSITION	0
LRC_DFT                 true
exchange 		general
BASIS                   g3large
omega			100
mem_static              760
max_scf_cycles          200
scf_final_print         1
sym_ignore              true
$end

@@@
 
$molecule
1,1
C         -0.00176        0.00000        0.00091
S          0.00185        0.00000        1.79845
H          1.04665        0.00000       -0.31214
H         -0.47050        0.89618       -0.40042
H         -0.47049       -0.89618       -0.40042
$end

$comment
positive
$end

$xc_functional
C PBE   1.00
X wPBE  1.00
$end

$rem
SYMMETRY_DECOMPOSITION	0
LRC_DFT                 true
exchange 		general
BASIS                   g3large
omega			100
mem_static              760
max_scf_cycles          200
scf_final_print         1
sym_ignore              true
$end

