 
$molecule
-1,2
C          0.00000        0.00000       -1.45438
C          0.00000        0.00000       -0.12363
H          0.92157        0.00000       -2.02223
H         -0.92157        0.00000       -2.02223
C          1.27294        0.00000        0.67661
H          2.15397        0.00000        0.03690
H          1.32379        0.87584        1.32939
H          1.32379       -0.87584        1.32939
C         -1.27294        0.00000        0.67661
H         -2.15397        0.00000        0.03690
H         -1.32379       -0.87584        1.32939
H         -1.32379        0.87584        1.32939
$end

$comment
negative
$end

$xc_functional
C PBE   1.00
X wPBE  1.00
$end

$rem
SYMMETRY_DECOMPOSITION	0
exchange 		general
LRC_DFT                 true
BASIS                   g3large
omega			600
mem_static              760
max_scf_cycles          200
scf_final_print         1
sym_ignore              true
$end

@@@
 
$molecule
0,1
C          0.00000        0.00000       -1.45438
C          0.00000        0.00000       -0.12363
H          0.92157        0.00000       -2.02223
H         -0.92157        0.00000       -2.02223
C          1.27294        0.00000        0.67661
H          2.15397        0.00000        0.03690
H          1.32379        0.87584        1.32939
H          1.32379       -0.87584        1.32939
C         -1.27294        0.00000        0.67661
H         -2.15397        0.00000        0.03690
H         -1.32379       -0.87584        1.32939
H         -1.32379        0.87584        1.32939
$end

$comment
neutral
$end

$xc_functional
C PBE   1.00
X wPBE  1.00
$end


$rem
SYMMETRY_DECOMPOSITION	0
LRC_DFT                 true
exchange 		general
BASIS                   g3large
omega			600
mem_static              760
max_scf_cycles          200
scf_final_print         1
sym_ignore              true
$end

@@@
 
$molecule
1,2
C          0.00000        0.00000       -1.45438
C          0.00000        0.00000       -0.12363
H          0.92157        0.00000       -2.02223
H         -0.92157        0.00000       -2.02223
C          1.27294        0.00000        0.67661
H          2.15397        0.00000        0.03690
H          1.32379        0.87584        1.32939
H          1.32379       -0.87584        1.32939
C         -1.27294        0.00000        0.67661
H         -2.15397        0.00000        0.03690
H         -1.32379       -0.87584        1.32939
H         -1.32379        0.87584        1.32939
$end

$comment
positive
$end

$xc_functional
C PBE   1.00
X wPBE  1.00
$end

$rem
SYMMETRY_DECOMPOSITION	0
LRC_DFT                 true
exchange 		general
BASIS                   g3large
omega			600
mem_static              760
max_scf_cycles          200
scf_final_print         1
sym_ignore              true
$end

