 
$molecule
-1,1
C         -0.01075       -0.03690        0.00306
O          0.00927        0.02729        1.36509
H          0.91404       -0.01528        1.68574
H          0.84221       -0.44869       -0.51739
H         -1.00138       -0.06398       -0.41912
$end

$comment
negative
$end

$xc_functional
C PBE   1.00
X wPBE  1.00
$end

$rem
SYMMETRY_DECOMPOSITION	0
exchange 		general
LRC_DFT                 true
BASIS                   g3large
omega			600
mem_static              760
max_scf_cycles          200
scf_final_print         1
sym_ignore              true
$end

@@@
 
$molecule
0,2
C         -0.01075       -0.03690        0.00306
O          0.00927        0.02729        1.36509
H          0.91404       -0.01528        1.68574
H          0.84221       -0.44869       -0.51739
H         -1.00138       -0.06398       -0.41912
$end

$comment
neutral
$end

$xc_functional
C PBE   1.00
X wPBE  1.00
$end


$rem
SYMMETRY_DECOMPOSITION	0
LRC_DFT                 true
exchange 		general
BASIS                   g3large
omega			600
mem_static              760
max_scf_cycles          200
scf_final_print         1
sym_ignore              true
$end

@@@
 
$molecule
1,1
C         -0.01075       -0.03690        0.00306
O          0.00927        0.02729        1.36509
H          0.91404       -0.01528        1.68574
H          0.84221       -0.44869       -0.51739
H         -1.00138       -0.06398       -0.41912
$end

$comment
positive
$end

$xc_functional
C PBE   1.00
X wPBE  1.00
$end

$rem
SYMMETRY_DECOMPOSITION	0
LRC_DFT                 true
exchange 		general
BASIS                   g3large
omega			600
mem_static              760
max_scf_cycles          200
scf_final_print         1
sym_ignore              true
$end

