 
$molecule
0,1
Si        -0.00000       -0.00000        0.05795
Si         0.00000        0.00000        2.29228
H          1.38673       -0.00000       -0.43020
H         -0.69338       -1.20095       -0.43019
H         -0.69338        1.20095       -0.43019
H         -1.38673       -0.00000        2.78043
H          0.69338       -1.20095        2.78042
H          0.69338        1.20095        2.78042
$end
 
 
$comment
b3lyp opt
$end

$rem
   EXCHANGE B3LYP
   UNRESTRICTED TRUE
   SYMMETRY_DECOMPOSITION	0
   BASIS                   g3large
   JOBTYPE                 opt
   mem_static              760
   max_scf_cycles          200
   scf_final_print         1
   sym_ignore              true
$end

 
@@@
 
$molecule 
READ 
$end 
 
$rem
   EXCHANGE B3LYP
   UNRESTRICTED TRUE
   SYMMETRY_DECOMPOSITION       0
   BASIS                   g3large
   JOBTYPE                 freq
   mem_static              760
   max_scf_cycles          200
   scf_final_print         1
   sym_ignore              true
   JOBTYPE                 freq
   IDERIV 1
   SCF_GUESS READ
$end
