 
$molecule
-1,2
Si         0.00043        0.00000        0.00859
Si        -0.00043        0.00000        2.34164
H          1.39623        0.00000       -0.50779
H         -0.69763       -1.20910       -0.50626
H         -0.69763        1.20910       -0.50626
H         -1.39623        0.00000        2.85803
H          0.69763       -1.20910        2.85649
H          0.69763        1.20910        2.85649
$end

$comment
negative
$end

$xc_functional
C PBE   1.00
X wPBE  1.00
$end

$rem
SYMMETRY_DECOMPOSITION	0
exchange 		general
LRC_DFT                 true
BASIS                   g3large
omega			330
mem_static              760
max_scf_cycles          200
scf_final_print         1
sym_ignore              true
$end

@@@
 
$molecule
0,1
Si         0.00043        0.00000        0.00859
Si        -0.00043        0.00000        2.34164
H          1.39623        0.00000       -0.50779
H         -0.69763       -1.20910       -0.50626
H         -0.69763        1.20910       -0.50626
H         -1.39623        0.00000        2.85803
H          0.69763       -1.20910        2.85649
H          0.69763        1.20910        2.85649
$end

$comment
neutral
$end

$xc_functional
C PBE   1.00
X wPBE  1.00
$end


$rem
SYMMETRY_DECOMPOSITION	0
LRC_DFT                 true
exchange 		general
BASIS                   g3large
omega			330
mem_static              760
max_scf_cycles          200
scf_final_print         1
sym_ignore              true
$end

@@@
 
$molecule
1,2
Si         0.00043        0.00000        0.00859
Si        -0.00043        0.00000        2.34164
H          1.39623        0.00000       -0.50779
H         -0.69763       -1.20910       -0.50626
H         -0.69763        1.20910       -0.50626
H         -1.39623        0.00000        2.85803
H          0.69763       -1.20910        2.85649
H          0.69763        1.20910        2.85649
$end

$comment
positive
$end

$xc_functional
C PBE   1.00
X wPBE  1.00
$end

$rem
SYMMETRY_DECOMPOSITION	0
LRC_DFT                 true
exchange 		general
BASIS                   g3large
omega			330
mem_static              760
max_scf_cycles          200
scf_final_print         1
sym_ignore              true
$end

