 
$molecule
-1,2
C          0.00085        0.00000       -0.00600
N          0.02095        0.00000        1.45707
H          0.98785        0.00000       -0.48535
H          0.50268       -0.81388        1.81631
H          0.50268        0.81388        1.81631
H         -0.54219       -0.87732       -0.35737
H         -0.54219        0.87732       -0.35737
$end

$comment
negative
$end

$xc_functional
C PBE   1.00
X wPBE  1.00
$end

$rem
SYMMETRY_DECOMPOSITION	0
exchange 		general
LRC_DFT                 true
BASIS                   g3large
omega			1000
mem_static              760
max_scf_cycles          200
scf_final_print         1
sym_ignore              true
$end

@@@
 
$molecule
0,1
C          0.00085        0.00000       -0.00600
N          0.02095        0.00000        1.45707
H          0.98785        0.00000       -0.48535
H          0.50268       -0.81388        1.81631
H          0.50268        0.81388        1.81631
H         -0.54219       -0.87732       -0.35737
H         -0.54219        0.87732       -0.35737
$end

$comment
neutral
$end

$xc_functional
C PBE   1.00
X wPBE  1.00
$end


$rem
SYMMETRY_DECOMPOSITION	0
LRC_DFT                 true
exchange 		general
BASIS                   g3large
omega			1000
mem_static              760
max_scf_cycles          200
scf_final_print         1
sym_ignore              true
$end

@@@
 
$molecule
1,2
C          0.00085        0.00000       -0.00600
N          0.02095        0.00000        1.45707
H          0.98785        0.00000       -0.48535
H          0.50268       -0.81388        1.81631
H          0.50268        0.81388        1.81631
H         -0.54219       -0.87732       -0.35737
H         -0.54219        0.87732       -0.35737
$end

$comment
positive
$end

$xc_functional
C PBE   1.00
X wPBE  1.00
$end

$rem
SYMMETRY_DECOMPOSITION	0
LRC_DFT                 true
exchange 		general
BASIS                   g3large
omega			1000
mem_static              760
max_scf_cycles          200
scf_final_print         1
sym_ignore              true
$end

