 
$molecule
-1,2
C          0.00204        0.00000        0.00456
C          0.00399        0.00000        1.33170
H          0.92384        0.00000       -0.56549
H         -0.91959        0.00000       -0.56163
H         -0.94810        0.00000        1.85464
C          1.22617        0.00000        2.19597
H          2.13853        0.00000        1.60006
H          1.24541        0.87583        2.84944
H          1.24541       -0.87583        2.84944
$end

$comment
negative
$end

$xc_functional
C PBE   1.00
X wPBE  1.00
$end

$rem
SYMMETRY_DECOMPOSITION	0
exchange 		general
LRC_DFT                 true
BASIS                   g3large
omega			700
mem_static              760
max_scf_cycles          200
scf_final_print         1
sym_ignore              true
$end

@@@
 
$molecule
0,1
C          0.00204        0.00000        0.00456
C          0.00399        0.00000        1.33170
H          0.92384        0.00000       -0.56549
H         -0.91959        0.00000       -0.56163
H         -0.94810        0.00000        1.85464
C          1.22617        0.00000        2.19597
H          2.13853        0.00000        1.60006
H          1.24541        0.87583        2.84944
H          1.24541       -0.87583        2.84944
$end

$comment
neutral
$end

$xc_functional
C PBE   1.00
X wPBE  1.00
$end


$rem
SYMMETRY_DECOMPOSITION	0
LRC_DFT                 true
exchange 		general
BASIS                   g3large
omega			700
mem_static              760
max_scf_cycles          200
scf_final_print         1
sym_ignore              true
$end

@@@
 
$molecule
1,2
C          0.00204        0.00000        0.00456
C          0.00399        0.00000        1.33170
H          0.92384        0.00000       -0.56549
H         -0.91959        0.00000       -0.56163
H         -0.94810        0.00000        1.85464
C          1.22617        0.00000        2.19597
H          2.13853        0.00000        1.60006
H          1.24541        0.87583        2.84944
H          1.24541       -0.87583        2.84944
$end

$comment
positive
$end

$xc_functional
C PBE   1.00
X wPBE  1.00
$end

$rem
SYMMETRY_DECOMPOSITION	0
LRC_DFT                 true
exchange 		general
BASIS                   g3large
omega			700
mem_static              760
max_scf_cycles          200
scf_final_print         1
sym_ignore              true
$end

