
$comment
positive
$end

$xc_functional
C PBE   1.00
X wPBE  1.00
$end

$rem
SYMMETRY_DECOMPOSITION	0
LRC_DFT                 true
exchange 		general
BASIS                   gen
ECP                     lanl2dz
omega			xOMEGA
mem_static              760
max_scf_cycles          200
scf_final_print         1
sym_ignore              true
$end

$basis
   V 0
   lanl2dz
   ****
   O 0 
   6-31+G*
   ****
   N 0
   6-31+G*
   ****
   C 0
   6-31+G*
   ****
   H 0
   6-31+G*
   ****
   F 0
   6-31+G*
   ****
$end
