 
$molecule
-1,2
C         -0.00003        0.00000        0.00516
H         -0.00008        0.00000        1.10218
C          1.44812        0.00000       -0.46687
H          1.49471        0.00000       -1.56081
H          1.98381        0.88422       -0.11143
H          1.98381       -0.88422       -0.11143
C         -0.72414       -1.25418       -0.46676
H         -0.74732       -1.29470       -1.56072
H         -0.22592       -2.15997       -0.11132
H         -1.75778       -1.27628       -0.11148
C         -0.72414        1.25418       -0.46676
H         -0.74732        1.29470       -1.56072
H         -1.75778        1.27628       -0.11148
H         -0.22592        2.15997       -0.11132
$end

$comment
negative
$end

$xc_functional
C PBE   1.00
X wPBE  1.00
$end

$rem
SYMMETRY_DECOMPOSITION	0
exchange 		general
LRC_DFT                 true
BASIS                   g3large
omega			440
mem_static              760
max_scf_cycles          200
scf_final_print         1
sym_ignore              true
$end

@@@
 
$molecule
0,1
C         -0.00003        0.00000        0.00516
H         -0.00008        0.00000        1.10218
C          1.44812        0.00000       -0.46687
H          1.49471        0.00000       -1.56081
H          1.98381        0.88422       -0.11143
H          1.98381       -0.88422       -0.11143
C         -0.72414       -1.25418       -0.46676
H         -0.74732       -1.29470       -1.56072
H         -0.22592       -2.15997       -0.11132
H         -1.75778       -1.27628       -0.11148
C         -0.72414        1.25418       -0.46676
H         -0.74732        1.29470       -1.56072
H         -1.75778        1.27628       -0.11148
H         -0.22592        2.15997       -0.11132
$end

$comment
neutral
$end

$xc_functional
C PBE   1.00
X wPBE  1.00
$end


$rem
SYMMETRY_DECOMPOSITION	0
LRC_DFT                 true
exchange 		general
BASIS                   g3large
omega			440
mem_static              760
max_scf_cycles          200
scf_final_print         1
sym_ignore              true
$end

@@@
 
$molecule
1,2
C         -0.00003        0.00000        0.00516
H         -0.00008        0.00000        1.10218
C          1.44812        0.00000       -0.46687
H          1.49471        0.00000       -1.56081
H          1.98381        0.88422       -0.11143
H          1.98381       -0.88422       -0.11143
C         -0.72414       -1.25418       -0.46676
H         -0.74732       -1.29470       -1.56072
H         -0.22592       -2.15997       -0.11132
H         -1.75778       -1.27628       -0.11148
C         -0.72414        1.25418       -0.46676
H         -0.74732        1.29470       -1.56072
H         -1.75778        1.27628       -0.11148
H         -0.22592        2.15997       -0.11132
$end

$comment
positive
$end

$xc_functional
C PBE   1.00
X wPBE  1.00
$end

$rem
SYMMETRY_DECOMPOSITION	0
LRC_DFT                 true
exchange 		general
BASIS                   g3large
omega			440
mem_static              760
max_scf_cycles          200
scf_final_print         1
sym_ignore              true
$end

