 
$molecule
-1,2
C          0.07036       -1.44581        0.82535
C          0.06888        0.07267        0.82564
S         -0.07700        0.66260       -0.87828
H         -0.04712        1.97314       -0.61059
H         -0.76989        0.45245        1.41169
H          0.99426        0.45402        1.26102
H          0.15897       -1.82570        1.84570
H         -0.85370       -1.83993        0.39540
H          0.90789       -1.83776        0.24308
$end

$comment
negative
$end

$xc_functional
C PBE   1.00
X wPBE  1.00
$end

$rem
SYMMETRY_DECOMPOSITION	0
exchange 		general
LRC_DFT                 true
BASIS                   g3large
omega			260
mem_static              760
max_scf_cycles          200
scf_final_print         1
sym_ignore              true
$end

@@@
 
$molecule
0,1
C          0.07036       -1.44581        0.82535
C          0.06888        0.07267        0.82564
S         -0.07700        0.66260       -0.87828
H         -0.04712        1.97314       -0.61059
H         -0.76989        0.45245        1.41169
H          0.99426        0.45402        1.26102
H          0.15897       -1.82570        1.84570
H         -0.85370       -1.83993        0.39540
H          0.90789       -1.83776        0.24308
$end

$comment
neutral
$end

$xc_functional
C PBE   1.00
X wPBE  1.00
$end


$rem
SYMMETRY_DECOMPOSITION	0
LRC_DFT                 true
exchange 		general
BASIS                   g3large
omega			260
mem_static              760
max_scf_cycles          200
scf_final_print         1
sym_ignore              true
$end

@@@
 
$molecule
1,2
C          0.07036       -1.44581        0.82535
C          0.06888        0.07267        0.82564
S         -0.07700        0.66260       -0.87828
H         -0.04712        1.97314       -0.61059
H         -0.76989        0.45245        1.41169
H          0.99426        0.45402        1.26102
H          0.15897       -1.82570        1.84570
H         -0.85370       -1.83993        0.39540
H          0.90789       -1.83776        0.24308
$end

$comment
positive
$end

$xc_functional
C PBE   1.00
X wPBE  1.00
$end

$rem
SYMMETRY_DECOMPOSITION	0
LRC_DFT                 true
exchange 		general
BASIS                   g3large
omega			260
mem_static              760
max_scf_cycles          200
scf_final_print         1
sym_ignore              true
$end

