 
$molecule
-1,2
N          1.39049        0.00000        1.00000
C         -1.39359        0.00000        1.00000
C          0.69834        1.13591        1.00000
C          0.69834       -1.13591        1.00000
C         -0.68673       -1.19030        1.00000
C         -0.68673        1.19030        1.00000
H         -2.47999        0.00000        1.00000
H          1.28453        2.05358        1.00000
H          1.28453       -2.05358        1.00000
H         -1.19543       -2.14903        1.00000
H         -1.19543        2.14903        1.00000
$end

$comment
negative
$end

$xc_functional
C PBE   1.00
X wPBE  1.00
$end

$rem
SYMMETRY_DECOMPOSITION	0
exchange 		general
LRC_DFT                 true
BASIS                   g3large
omega			900
mem_static              760
max_scf_cycles          200
scf_final_print         1
sym_ignore              true
$end

@@@
 
$molecule
0,1
N          1.39049        0.00000        1.00000
C         -1.39359        0.00000        1.00000
C          0.69834        1.13591        1.00000
C          0.69834       -1.13591        1.00000
C         -0.68673       -1.19030        1.00000
C         -0.68673        1.19030        1.00000
H         -2.47999        0.00000        1.00000
H          1.28453        2.05358        1.00000
H          1.28453       -2.05358        1.00000
H         -1.19543       -2.14903        1.00000
H         -1.19543        2.14903        1.00000
$end

$comment
neutral
$end

$xc_functional
C PBE   1.00
X wPBE  1.00
$end


$rem
SYMMETRY_DECOMPOSITION	0
LRC_DFT                 true
exchange 		general
BASIS                   g3large
omega			900
mem_static              760
max_scf_cycles          200
scf_final_print         1
sym_ignore              true
$end

@@@
 
$molecule
1,2
N          1.39049        0.00000        1.00000
C         -1.39359        0.00000        1.00000
C          0.69834        1.13591        1.00000
C          0.69834       -1.13591        1.00000
C         -0.68673       -1.19030        1.00000
C         -0.68673        1.19030        1.00000
H         -2.47999        0.00000        1.00000
H          1.28453        2.05358        1.00000
H          1.28453       -2.05358        1.00000
H         -1.19543       -2.14903        1.00000
H         -1.19543        2.14903        1.00000
$end

$comment
positive
$end

$xc_functional
C PBE   1.00
X wPBE  1.00
$end

$rem
SYMMETRY_DECOMPOSITION	0
LRC_DFT                 true
exchange 		general
BASIS                   g3large
omega			900
mem_static              760
max_scf_cycles          200
scf_final_print         1
sym_ignore              true
$end

