 
$molecule
-1,2
B          0.00005        0.00000        0.00000
Cl         1.72897        0.00000        0.00000
Cl        -0.86451       -1.49717        0.00000
Cl        -0.86451        1.49717        0.00000
$end

$comment
negative
$end

$xc_functional
C PBE   1.00
X wPBE  1.00
$end

$rem
SYMMETRY_DECOMPOSITION	0
exchange 		general
LRC_DFT                 true
BASIS                   g3large
omega			500
mem_static              760
max_scf_cycles          200
scf_final_print         1
sym_ignore              true
$end

@@@
 
$molecule
0,1
B          0.00005        0.00000        0.00000
Cl         1.72897        0.00000        0.00000
Cl        -0.86451       -1.49717        0.00000
Cl        -0.86451        1.49717        0.00000
$end

$comment
neutral
$end

$xc_functional
C PBE   1.00
X wPBE  1.00
$end


$rem
SYMMETRY_DECOMPOSITION	0
LRC_DFT                 true
exchange 		general
BASIS                   g3large
omega			500
mem_static              760
max_scf_cycles          200
scf_final_print         1
sym_ignore              true
$end

@@@
 
$molecule
1,2
B          0.00005        0.00000        0.00000
Cl         1.72897        0.00000        0.00000
Cl        -0.86451       -1.49717        0.00000
Cl        -0.86451        1.49717        0.00000
$end

$comment
positive
$end

$xc_functional
C PBE   1.00
X wPBE  1.00
$end

$rem
SYMMETRY_DECOMPOSITION	0
LRC_DFT                 true
exchange 		general
BASIS                   g3large
omega			500
mem_static              760
max_scf_cycles          200
scf_final_print         1
sym_ignore              true
$end

