 
$molecule
-1,2
H          0.00000        0.00000        0.00729
N          0.00000        0.00000        1.01072
C          1.12193        0.00000        1.79938
C         -1.12193        0.00000        1.79938
C          0.71074        0.00000        3.10976
C         -0.71074        0.00000        3.10976
H          2.10719        0.00000        1.36792
H         -2.10719        0.00000        1.36792
H          1.35649        0.00000        3.97105
H         -1.35649        0.00000        3.97105
$end

$comment
negative
$end

$xc_functional
C PBE   1.00
X wPBE  1.00
$end

$rem
SYMMETRY_DECOMPOSITION	0
exchange 		general
LRC_DFT                 true
BASIS                   g3large
omega			2000
mem_static              760
max_scf_cycles          200
scf_final_print         1
sym_ignore              true
$end

@@@
 
$molecule
0,1
H          0.00000        0.00000        0.00729
N          0.00000        0.00000        1.01072
C          1.12193        0.00000        1.79938
C         -1.12193        0.00000        1.79938
C          0.71074        0.00000        3.10976
C         -0.71074        0.00000        3.10976
H          2.10719        0.00000        1.36792
H         -2.10719        0.00000        1.36792
H          1.35649        0.00000        3.97105
H         -1.35649        0.00000        3.97105
$end

$comment
neutral
$end

$xc_functional
C PBE   1.00
X wPBE  1.00
$end


$rem
SYMMETRY_DECOMPOSITION	0
LRC_DFT                 true
exchange 		general
BASIS                   g3large
omega			2000
mem_static              760
max_scf_cycles          200
scf_final_print         1
sym_ignore              true
$end

@@@
 
$molecule
1,2
H          0.00000        0.00000        0.00729
N          0.00000        0.00000        1.01072
C          1.12193        0.00000        1.79938
C         -1.12193        0.00000        1.79938
C          0.71074        0.00000        3.10976
C         -0.71074        0.00000        3.10976
H          2.10719        0.00000        1.36792
H         -2.10719        0.00000        1.36792
H          1.35649        0.00000        3.97105
H         -1.35649        0.00000        3.97105
$end

$comment
positive
$end

$xc_functional
C PBE   1.00
X wPBE  1.00
$end

$rem
SYMMETRY_DECOMPOSITION	0
LRC_DFT                 true
exchange 		general
BASIS                   g3large
omega			2000
mem_static              760
max_scf_cycles          200
scf_final_print         1
sym_ignore              true
$end

