 
$molecule
-1,2
C         -0.00054        0.00323        0.00184
C         -0.00311        0.01482        1.51795
O          1.02510        0.01360        2.16651
N         -1.23228        0.03484        2.10960
H         -1.28049        0.05089        3.11410
H         -2.08515        0.03057        1.58218
H         -0.99333       -0.08271       -0.43682
H          0.46475        0.92321       -0.35054
H          0.61637       -0.82647       -0.33819
$end

$comment
negative
$end

$xc_functional
C PBE   1.00
X wPBE  1.00
$end

$rem
SYMMETRY_DECOMPOSITION	0
exchange 		general
LRC_DFT                 true
BASIS                   g3large
omega			100
mem_static              760
max_scf_cycles          200
scf_final_print         1
sym_ignore              true
$end

@@@
 
$molecule
0,1
C         -0.00054        0.00323        0.00184
C         -0.00311        0.01482        1.51795
O          1.02510        0.01360        2.16651
N         -1.23228        0.03484        2.10960
H         -1.28049        0.05089        3.11410
H         -2.08515        0.03057        1.58218
H         -0.99333       -0.08271       -0.43682
H          0.46475        0.92321       -0.35054
H          0.61637       -0.82647       -0.33819
$end

$comment
neutral
$end

$xc_functional
C PBE   1.00
X wPBE  1.00
$end


$rem
SYMMETRY_DECOMPOSITION	0
LRC_DFT                 true
exchange 		general
BASIS                   g3large
omega			100
mem_static              760
max_scf_cycles          200
scf_final_print         1
sym_ignore              true
$end

@@@
 
$molecule
1,2
C         -0.00054        0.00323        0.00184
C         -0.00311        0.01482        1.51795
O          1.02510        0.01360        2.16651
N         -1.23228        0.03484        2.10960
H         -1.28049        0.05089        3.11410
H         -2.08515        0.03057        1.58218
H         -0.99333       -0.08271       -0.43682
H          0.46475        0.92321       -0.35054
H          0.61637       -0.82647       -0.33819
$end

$comment
positive
$end

$xc_functional
C PBE   1.00
X wPBE  1.00
$end

$rem
SYMMETRY_DECOMPOSITION	0
LRC_DFT                 true
exchange 		general
BASIS                   g3large
omega			100
mem_static              760
max_scf_cycles          200
scf_final_print         1
sym_ignore              true
$end

