 
$molecule
-1,2
C          0.00012        0.00000        0.01772
Si        -0.00002       -0.00000        1.88416
H          1.04598        0.00000       -0.35160
H         -0.52304       -0.90592       -0.35164
H         -0.52304        0.90592       -0.35164
H         -1.38674       -0.00000        2.37295
H          0.69337       -1.20095        2.37296
H          0.69337        1.20095        2.37296
$end

$comment
negative
$end

$xc_functional
C PBE   1.00
X wPBE  1.00
$end

$rem
SYMMETRY_DECOMPOSITION	0
exchange 		general
LRC_DFT                 true
BASIS                   g3large
omega			560
mem_static              760
max_scf_cycles          200
scf_final_print         1
sym_ignore              true
$end

@@@
 
$molecule
0,1
C          0.00012        0.00000        0.01772
Si        -0.00002       -0.00000        1.88416
H          1.04598        0.00000       -0.35160
H         -0.52304       -0.90592       -0.35164
H         -0.52304        0.90592       -0.35164
H         -1.38674       -0.00000        2.37295
H          0.69337       -1.20095        2.37296
H          0.69337        1.20095        2.37296
$end

$comment
neutral
$end

$xc_functional
C PBE   1.00
X wPBE  1.00
$end


$rem
SYMMETRY_DECOMPOSITION	0
LRC_DFT                 true
exchange 		general
BASIS                   g3large
omega			560
mem_static              760
max_scf_cycles          200
scf_final_print         1
sym_ignore              true
$end

@@@
 
$molecule
1,2
C          0.00012        0.00000        0.01772
Si        -0.00002       -0.00000        1.88416
H          1.04598        0.00000       -0.35160
H         -0.52304       -0.90592       -0.35164
H         -0.52304        0.90592       -0.35164
H         -1.38674       -0.00000        2.37295
H          0.69337       -1.20095        2.37296
H          0.69337        1.20095        2.37296
$end

$comment
positive
$end

$xc_functional
C PBE   1.00
X wPBE  1.00
$end

$rem
SYMMETRY_DECOMPOSITION	0
LRC_DFT                 true
exchange 		general
BASIS                   g3large
omega			560
mem_static              760
max_scf_cycles          200
scf_final_print         1
sym_ignore              true
$end

