 
$molecule
-1,2
Al         0.00002        0.00000        0.00000
Cl         2.07622        0.00000        0.00000
Cl        -1.03812       -1.79793        0.00000
Cl        -1.03812        1.79793        0.00000
$end

$comment
negative
$end

$xc_functional
C PBE   1.00
X wPBE  1.00
$end

$rem
SYMMETRY_DECOMPOSITION	0
exchange 		general
LRC_DFT                 true
BASIS                   g3large
omega			xOMEGA
mem_static              760
max_scf_cycles          200
scf_final_print         1
sym_ignore              true
$end

@@@
 
$molecule
0,1
Al         0.00002        0.00000        0.00000
Cl         2.07622        0.00000        0.00000
Cl        -1.03812       -1.79793        0.00000
Cl        -1.03812        1.79793        0.00000
$end

$comment
neutral
$end

$xc_functional
C PBE   1.00
X wPBE  1.00
$end


$rem
SYMMETRY_DECOMPOSITION	0
LRC_DFT                 true
exchange 		general
BASIS                   g3large
omega			xOMEGA
mem_static              760
max_scf_cycles          200
scf_final_print         1
sym_ignore              true
$end

@@@
 
$molecule
1,2
Al         0.00002        0.00000        0.00000
Cl         2.07622        0.00000        0.00000
Cl        -1.03812       -1.79793        0.00000
Cl        -1.03812        1.79793        0.00000
$end

$comment
positive
$end

$xc_functional
C PBE   1.00
X wPBE  1.00
$end

$rem
SYMMETRY_DECOMPOSITION	0
LRC_DFT                 true
exchange 		general
BASIS                   g3large
omega			xOMEGA
mem_static              760
max_scf_cycles          200
scf_final_print         1
sym_ignore              true
$end

