 
$molecule
-1,2
C         -0.00045        0.00000        0.00035
C          0.00045        0.00000        1.52467
O          1.02283        0.00000       -0.62839
H         -1.00284        0.00000       -0.46512
O         -1.02283        0.00000        2.15341
H          1.00284        0.00000        1.99013
$end

$comment
negative
$end

$xc_functional
C PBE   1.00
X wPBE  1.00
$end

$rem
SYMMETRY_DECOMPOSITION	0
exchange 		general
LRC_DFT                 true
BASIS                   g3large
omega			100
mem_static              760
max_scf_cycles          200
scf_final_print         1
sym_ignore              true
$end

@@@
 
$molecule
0,1
C         -0.00045        0.00000        0.00035
C          0.00045        0.00000        1.52467
O          1.02283        0.00000       -0.62839
H         -1.00284        0.00000       -0.46512
O         -1.02283        0.00000        2.15341
H          1.00284        0.00000        1.99013
$end

$comment
neutral
$end

$xc_functional
C PBE   1.00
X wPBE  1.00
$end


$rem
SYMMETRY_DECOMPOSITION	0
LRC_DFT                 true
exchange 		general
BASIS                   g3large
omega			100
mem_static              760
max_scf_cycles          200
scf_final_print         1
sym_ignore              true
$end

@@@
 
$molecule
1,2
C         -0.00045        0.00000        0.00035
C          0.00045        0.00000        1.52467
O          1.02283        0.00000       -0.62839
H         -1.00284        0.00000       -0.46512
O         -1.02283        0.00000        2.15341
H          1.00284        0.00000        1.99013
$end

$comment
positive
$end

$xc_functional
C PBE   1.00
X wPBE  1.00
$end

$rem
SYMMETRY_DECOMPOSITION	0
LRC_DFT                 true
exchange 		general
BASIS                   g3large
omega			100
mem_static              760
max_scf_cycles          200
scf_final_print         1
sym_ignore              true
$end

