 
$molecule
-1,2
C          0.66754        0.00000        0.00326
C         -0.66754        0.00000        0.00326
C          0.78448        0.00000        1.51414
C         -0.78448        0.00000        1.51414
H          1.41164        0.00000       -0.78223
H         -1.41164        0.00000       -0.78223
H          1.24290        0.88595        1.95700
H          1.24290       -0.88595        1.95700
H         -1.24290       -0.88595        1.95700
H         -1.24290        0.88595        1.95700
$end

$comment
negative
$end

$xc_functional
C PBE   1.00
X wPBE  1.00
$end

$rem
SYMMETRY_DECOMPOSITION	0
exchange 		general
LRC_DFT                 true
BASIS                   g3large
omega			500
mem_static              760
max_scf_cycles          200
scf_final_print         1
sym_ignore              true
$end

@@@
 
$molecule
0,1
C          0.66754        0.00000        0.00326
C         -0.66754        0.00000        0.00326
C          0.78448        0.00000        1.51414
C         -0.78448        0.00000        1.51414
H          1.41164        0.00000       -0.78223
H         -1.41164        0.00000       -0.78223
H          1.24290        0.88595        1.95700
H          1.24290       -0.88595        1.95700
H         -1.24290       -0.88595        1.95700
H         -1.24290        0.88595        1.95700
$end

$comment
neutral
$end

$xc_functional
C PBE   1.00
X wPBE  1.00
$end


$rem
SYMMETRY_DECOMPOSITION	0
LRC_DFT                 true
exchange 		general
BASIS                   g3large
omega			500
mem_static              760
max_scf_cycles          200
scf_final_print         1
sym_ignore              true
$end

@@@
 
$molecule
1,2
C          0.66754        0.00000        0.00326
C         -0.66754        0.00000        0.00326
C          0.78448        0.00000        1.51414
C         -0.78448        0.00000        1.51414
H          1.41164        0.00000       -0.78223
H         -1.41164        0.00000       -0.78223
H          1.24290        0.88595        1.95700
H          1.24290       -0.88595        1.95700
H         -1.24290       -0.88595        1.95700
H         -1.24290        0.88595        1.95700
$end

$comment
positive
$end

$xc_functional
C PBE   1.00
X wPBE  1.00
$end

$rem
SYMMETRY_DECOMPOSITION	0
LRC_DFT                 true
exchange 		general
BASIS                   g3large
omega			500
mem_static              760
max_scf_cycles          200
scf_final_print         1
sym_ignore              true
$end

