 
$molecule
-1,2
Si         0.00016        0.00000       -0.00056
H         -0.00014        0.00000        1.47878
H          1.39501        0.00000       -0.49283
H         -0.69752       -1.20813       -0.49269
H         -0.69752        1.20813       -0.49269
$end

$comment
negative
$end

$xc_functional
C PBE   1.00
X wPBE  1.00
$end

$rem
SYMMETRY_DECOMPOSITION	0
exchange 		general
LRC_DFT                 true
BASIS                   g3large
omega			800
mem_static              760
max_scf_cycles          200
scf_final_print         1
sym_ignore              true
$end

@@@
 
$molecule
0,1
Si         0.00016        0.00000       -0.00056
H         -0.00014        0.00000        1.47878
H          1.39501        0.00000       -0.49283
H         -0.69752       -1.20813       -0.49269
H         -0.69752        1.20813       -0.49269
$end

$comment
neutral
$end

$xc_functional
C PBE   1.00
X wPBE  1.00
$end


$rem
SYMMETRY_DECOMPOSITION	0
LRC_DFT                 true
exchange 		general
BASIS                   g3large
omega			800
mem_static              760
max_scf_cycles          200
scf_final_print         1
sym_ignore              true
$end

@@@
 
$molecule
1,2
Si         0.00016        0.00000       -0.00056
H         -0.00014        0.00000        1.47878
H          1.39501        0.00000       -0.49283
H         -0.69752       -1.20813       -0.49269
H         -0.69752        1.20813       -0.49269
$end

$comment
positive
$end

$xc_functional
C PBE   1.00
X wPBE  1.00
$end

$rem
SYMMETRY_DECOMPOSITION	0
LRC_DFT                 true
exchange 		general
BASIS                   g3large
omega			800
mem_static              760
max_scf_cycles          200
scf_final_print         1
sym_ignore              true
$end

