 
$molecule
-1,2
Si         0.00011        0.00000       -0.00019
F          0.00001        0.00000        1.55015
F          1.46151        0.00000       -0.51661
F         -0.73082       -1.26606       -0.51667
F         -0.73082        1.26606       -0.51667
$end

$comment
negative
$end

$xc_functional
C PBE   1.00
X wPBE  1.00
$end

$rem
SYMMETRY_DECOMPOSITION	0
exchange 		general
LRC_DFT                 true
BASIS                   g3large
omega			630
mem_static              760
max_scf_cycles          200
scf_final_print         1
sym_ignore              true
$end

@@@
 
$molecule
0,1
Si         0.00011        0.00000       -0.00019
F          0.00001        0.00000        1.55015
F          1.46151        0.00000       -0.51661
F         -0.73082       -1.26606       -0.51667
F         -0.73082        1.26606       -0.51667
$end

$comment
neutral
$end

$xc_functional
C PBE   1.00
X wPBE  1.00
$end


$rem
SYMMETRY_DECOMPOSITION	0
LRC_DFT                 true
exchange 		general
BASIS                   g3large
omega			630
mem_static              760
max_scf_cycles          200
scf_final_print         1
sym_ignore              true
$end

@@@
 
$molecule
1,2
Si         0.00011        0.00000       -0.00019
F          0.00001        0.00000        1.55015
F          1.46151        0.00000       -0.51661
F         -0.73082       -1.26606       -0.51667
F         -0.73082        1.26606       -0.51667
$end

$comment
positive
$end

$xc_functional
C PBE   1.00
X wPBE  1.00
$end

$rem
SYMMETRY_DECOMPOSITION	0
LRC_DFT                 true
exchange 		general
BASIS                   g3large
omega			630
mem_static              760
max_scf_cycles          200
scf_final_print         1
sym_ignore              true
$end

