 
$molecule
-1,2
C          0.00460        0.00000        0.00873
O          0.00048        0.00000        1.40945
C          1.29795        0.00000        1.93778
H         -1.03199        0.00000       -0.32612
H          0.50793        0.89058       -0.39015
H          0.50793       -0.89058       -0.39015
H          1.21429        0.00000        3.02388
H          1.85811       -0.89052        1.62353
H          1.85811        0.89052        1.62353
$end

$comment
negative
$end

$xc_functional
C PBE   1.00
X wPBE  1.00
$end

$rem
SYMMETRY_DECOMPOSITION	0
exchange 		general
LRC_DFT                 true
BASIS                   g3large
omega			420
mem_static              760
max_scf_cycles          200
scf_final_print         1
sym_ignore              true
$end

@@@
 
$molecule
0,1
C          0.00460        0.00000        0.00873
O          0.00048        0.00000        1.40945
C          1.29795        0.00000        1.93778
H         -1.03199        0.00000       -0.32612
H          0.50793        0.89058       -0.39015
H          0.50793       -0.89058       -0.39015
H          1.21429        0.00000        3.02388
H          1.85811       -0.89052        1.62353
H          1.85811        0.89052        1.62353
$end

$comment
neutral
$end

$xc_functional
C PBE   1.00
X wPBE  1.00
$end


$rem
SYMMETRY_DECOMPOSITION	0
LRC_DFT                 true
exchange 		general
BASIS                   g3large
omega			420
mem_static              760
max_scf_cycles          200
scf_final_print         1
sym_ignore              true
$end

@@@
 
$molecule
1,2
C          0.00460        0.00000        0.00873
O          0.00048        0.00000        1.40945
C          1.29795        0.00000        1.93778
H         -1.03199        0.00000       -0.32612
H          0.50793        0.89058       -0.39015
H          0.50793       -0.89058       -0.39015
H          1.21429        0.00000        3.02388
H          1.85811       -0.89052        1.62353
H          1.85811        0.89052        1.62353
$end

$comment
positive
$end

$xc_functional
C PBE   1.00
X wPBE  1.00
$end

$rem
SYMMETRY_DECOMPOSITION	0
LRC_DFT                 true
exchange 		general
BASIS                   g3large
omega			420
mem_static              760
max_scf_cycles          200
scf_final_print         1
sym_ignore              true
$end

