 
$molecule
-1,2
N         -0.00024        0.00000        0.99207
C          1.37911        0.00000        1.42977
C         -0.68970        1.19479        1.42953
C         -0.68970       -1.19479        1.42953
H          1.47337        0.00000        2.53241
H          1.89281        0.88545        1.04451
H          1.89281       -0.88545        1.04451
H         -0.73655        1.27723        2.53226
H         -1.71347        1.19766        1.04462
H         -0.17921        2.08198        1.04411
H         -0.73655       -1.27723        2.53226
H         -0.17921       -2.08198        1.04411
H         -1.71347       -1.19766        1.04462
$end

$comment
negative
$end

$xc_functional
C PBE   1.00
X wPBE  1.00
$end

$rem
SYMMETRY_DECOMPOSITION	0
exchange 		general
LRC_DFT                 true
BASIS                   g3large
omega			700
mem_static              760
max_scf_cycles          200
scf_final_print         1
sym_ignore              true
$end

@@@
 
$molecule
0,1
N         -0.00024        0.00000        0.99207
C          1.37911        0.00000        1.42977
C         -0.68970        1.19479        1.42953
C         -0.68970       -1.19479        1.42953
H          1.47337        0.00000        2.53241
H          1.89281        0.88545        1.04451
H          1.89281       -0.88545        1.04451
H         -0.73655        1.27723        2.53226
H         -1.71347        1.19766        1.04462
H         -0.17921        2.08198        1.04411
H         -0.73655       -1.27723        2.53226
H         -0.17921       -2.08198        1.04411
H         -1.71347       -1.19766        1.04462
$end

$comment
neutral
$end

$xc_functional
C PBE   1.00
X wPBE  1.00
$end


$rem
SYMMETRY_DECOMPOSITION	0
LRC_DFT                 true
exchange 		general
BASIS                   g3large
omega			700
mem_static              760
max_scf_cycles          200
scf_final_print         1
sym_ignore              true
$end

@@@
 
$molecule
1,2
N         -0.00024        0.00000        0.99207
C          1.37911        0.00000        1.42977
C         -0.68970        1.19479        1.42953
C         -0.68970       -1.19479        1.42953
H          1.47337        0.00000        2.53241
H          1.89281        0.88545        1.04451
H          1.89281       -0.88545        1.04451
H         -0.73655        1.27723        2.53226
H         -1.71347        1.19766        1.04462
H         -0.17921        2.08198        1.04411
H         -0.73655       -1.27723        2.53226
H         -0.17921       -2.08198        1.04411
H         -1.71347       -1.19766        1.04462
$end

$comment
positive
$end

$xc_functional
C PBE   1.00
X wPBE  1.00
$end

$rem
SYMMETRY_DECOMPOSITION	0
LRC_DFT                 true
exchange 		general
BASIS                   g3large
omega			700
mem_static              760
max_scf_cycles          200
scf_final_print         1
sym_ignore              true
$end

