 
$molecule
-1,2
C         -0.00003        0.00000        0.00138
C         -0.00000        0.00000        1.45430
N          0.00004        0.00000        2.59799
H          1.02305        0.00000       -0.36996
H         -0.51153       -0.88601       -0.37005
H         -0.51153        0.88601       -0.37005
$end

$comment
negative
$end

$xc_functional
C PBE   1.00
X wPBE  1.00
$end

$rem
SYMMETRY_DECOMPOSITION	0
exchange 		general
LRC_DFT                 true
BASIS                   g3large
omega			430
mem_static              760
max_scf_cycles          200
scf_final_print         1
sym_ignore              true
$end

@@@
 
$molecule
0,1
C         -0.00003        0.00000        0.00138
C         -0.00000        0.00000        1.45430
N          0.00004        0.00000        2.59799
H          1.02305        0.00000       -0.36996
H         -0.51153       -0.88601       -0.37005
H         -0.51153        0.88601       -0.37005
$end

$comment
neutral
$end

$xc_functional
C PBE   1.00
X wPBE  1.00
$end


$rem
SYMMETRY_DECOMPOSITION	0
LRC_DFT                 true
exchange 		general
BASIS                   g3large
omega			430
mem_static              760
max_scf_cycles          200
scf_final_print         1
sym_ignore              true
$end

@@@
 
$molecule
1,2
C         -0.00003        0.00000        0.00138
C         -0.00000        0.00000        1.45430
N          0.00004        0.00000        2.59799
H          1.02305        0.00000       -0.36996
H         -0.51153       -0.88601       -0.37005
H         -0.51153        0.88601       -0.37005
$end

$comment
positive
$end

$xc_functional
C PBE   1.00
X wPBE  1.00
$end

$rem
SYMMETRY_DECOMPOSITION	0
LRC_DFT                 true
exchange 		general
BASIS                   g3large
omega			430
mem_static              760
max_scf_cycles          200
scf_final_print         1
sym_ignore              true
$end

