 
$molecule
-1,2
O          0.00816       -0.02102        0.02947
O         -0.02234       -0.00289        1.42617
H          0.94730        0.02358       -0.15428
H         -0.43370        0.84252        1.61004
$end

$comment
negative
$end

$xc_functional
C PBE   1.00
X wPBE  1.00
$end

$rem
SYMMETRY_DECOMPOSITION	0
exchange 		general
LRC_DFT                 true
BASIS                   g3large
omega			600
mem_static              760
max_scf_cycles          200
scf_final_print         1
sym_ignore              true
$end

@@@
 
$molecule
0,1
O          0.00816       -0.02102        0.02947
O         -0.02234       -0.00289        1.42617
H          0.94730        0.02358       -0.15428
H         -0.43370        0.84252        1.61004
$end

$comment
neutral
$end

$xc_functional
C PBE   1.00
X wPBE  1.00
$end


$rem
SYMMETRY_DECOMPOSITION	0
LRC_DFT                 true
exchange 		general
BASIS                   g3large
omega			600
mem_static              760
max_scf_cycles          200
scf_final_print         1
sym_ignore              true
$end

@@@
 
$molecule
1,2
O          0.00816       -0.02102        0.02947
O         -0.02234       -0.00289        1.42617
H          0.94730        0.02358       -0.15428
H         -0.43370        0.84252        1.61004
$end

$comment
positive
$end

$xc_functional
C PBE   1.00
X wPBE  1.00
$end

$rem
SYMMETRY_DECOMPOSITION	0
LRC_DFT                 true
exchange 		general
BASIS                   g3large
omega			600
mem_static              760
max_scf_cycles          200
scf_final_print         1
sym_ignore              true
$end

