 
$molecule
-1,2
C          0.00112        0.00000       -0.00177
O         -0.01212        0.00000        1.40484
H          1.04247        0.00000       -0.31294
H         -0.91650        0.00000        1.71221
H         -0.47920       -0.88913       -0.41695
H         -0.47920        0.88913       -0.41695
$end

$comment
negative
$end

$xc_functional
C PBE   1.00
X wPBE  1.00
$end

$rem
SYMMETRY_DECOMPOSITION	0
exchange 		general
LRC_DFT                 true
BASIS                   g3large
omega			370
mem_static              760
max_scf_cycles          200
scf_final_print         1
sym_ignore              true
$end

@@@
 
$molecule
0,1
C          0.00112        0.00000       -0.00177
O         -0.01212        0.00000        1.40484
H          1.04247        0.00000       -0.31294
H         -0.91650        0.00000        1.71221
H         -0.47920       -0.88913       -0.41695
H         -0.47920        0.88913       -0.41695
$end

$comment
neutral
$end

$xc_functional
C PBE   1.00
X wPBE  1.00
$end


$rem
SYMMETRY_DECOMPOSITION	0
LRC_DFT                 true
exchange 		general
BASIS                   g3large
omega			370
mem_static              760
max_scf_cycles          200
scf_final_print         1
sym_ignore              true
$end

@@@
 
$molecule
1,2
C          0.00112        0.00000       -0.00177
O         -0.01212        0.00000        1.40484
H          1.04247        0.00000       -0.31294
H         -0.91650        0.00000        1.71221
H         -0.47920       -0.88913       -0.41695
H         -0.47920        0.88913       -0.41695
$end

$comment
positive
$end

$xc_functional
C PBE   1.00
X wPBE  1.00
$end

$rem
SYMMETRY_DECOMPOSITION	0
LRC_DFT                 true
exchange 		general
BASIS                   g3large
omega			370
mem_static              760
max_scf_cycles          200
scf_final_print         1
sym_ignore              true
$end

