 
$molecule
-1,2
C         -0.00002        0.00000        0.00016
F         -0.00009        0.00000        1.30850
F          1.23364        0.00000       -0.43631
F         -0.61677       -1.06834       -0.43618
F         -0.61677        1.06834       -0.43618
$end

$comment
negative
$end

$xc_functional
C PBE   1.00
X wPBE  1.00
$end

$rem
SYMMETRY_DECOMPOSITION	0
exchange 		general
LRC_DFT                 true
BASIS                   g3large
omega			580
mem_static              760
max_scf_cycles          200
scf_final_print         1
sym_ignore              true
$end

@@@
 
$molecule
0,1
C         -0.00002        0.00000        0.00016
F         -0.00009        0.00000        1.30850
F          1.23364        0.00000       -0.43631
F         -0.61677       -1.06834       -0.43618
F         -0.61677        1.06834       -0.43618
$end

$comment
neutral
$end

$xc_functional
C PBE   1.00
X wPBE  1.00
$end


$rem
SYMMETRY_DECOMPOSITION	0
LRC_DFT                 true
exchange 		general
BASIS                   g3large
omega			580
mem_static              760
max_scf_cycles          200
scf_final_print         1
sym_ignore              true
$end

@@@
 
$molecule
1,2
C         -0.00002        0.00000        0.00016
F         -0.00009        0.00000        1.30850
F          1.23364        0.00000       -0.43631
F         -0.61677       -1.06834       -0.43618
F         -0.61677        1.06834       -0.43618
$end

$comment
positive
$end

$xc_functional
C PBE   1.00
X wPBE  1.00
$end

$rem
SYMMETRY_DECOMPOSITION	0
LRC_DFT                 true
exchange 		general
BASIS                   g3large
omega			580
mem_static              760
max_scf_cycles          200
scf_final_print         1
sym_ignore              true
$end

