 
$molecule
-1,2
C          0.00000        0.00000        1.39089
C          1.20471        0.00000        0.69547
C          1.20471        0.00000       -0.69547
C          0.00000        0.00000       -1.39089
C         -1.20471        0.00000       -0.69547
C         -1.20471        0.00000        0.69547
H          0.00000        0.00000        2.47298
H          2.14165        0.00000        1.23648
H          2.14165        0.00000       -1.23648
H          0.00000        0.00000       -2.47298
H         -2.14165        0.00000       -1.23648
H         -2.14165        0.00000        1.23648
$end

$comment
negative
$end

$xc_functional
C PBE   1.00
X wPBE  1.00
$end

$rem
SYMMETRY_DECOMPOSITION	0
exchange 		general
LRC_DFT                 true
BASIS                   g3large
omega			100
mem_static              760
max_scf_cycles          200
scf_final_print         1
sym_ignore              true
$end

@@@
 
$molecule
0,1
C          0.00000        0.00000        1.39089
C          1.20471        0.00000        0.69547
C          1.20471        0.00000       -0.69547
C          0.00000        0.00000       -1.39089
C         -1.20471        0.00000       -0.69547
C         -1.20471        0.00000        0.69547
H          0.00000        0.00000        2.47298
H          2.14165        0.00000        1.23648
H          2.14165        0.00000       -1.23648
H          0.00000        0.00000       -2.47298
H         -2.14165        0.00000       -1.23648
H         -2.14165        0.00000        1.23648
$end

$comment
neutral
$end

$xc_functional
C PBE   1.00
X wPBE  1.00
$end


$rem
SYMMETRY_DECOMPOSITION	0
LRC_DFT                 true
exchange 		general
BASIS                   g3large
omega			100
mem_static              760
max_scf_cycles          200
scf_final_print         1
sym_ignore              true
$end

@@@
 
$molecule
1,2
C          0.00000        0.00000        1.39089
C          1.20471        0.00000        0.69547
C          1.20471        0.00000       -0.69547
C          0.00000        0.00000       -1.39089
C         -1.20471        0.00000       -0.69547
C         -1.20471        0.00000        0.69547
H          0.00000        0.00000        2.47298
H          2.14165        0.00000        1.23648
H          2.14165        0.00000       -1.23648
H          0.00000        0.00000       -2.47298
H         -2.14165        0.00000       -1.23648
H         -2.14165        0.00000        1.23648
$end

$comment
positive
$end

$xc_functional
C PBE   1.00
X wPBE  1.00
$end

$rem
SYMMETRY_DECOMPOSITION	0
LRC_DFT                 true
exchange 		general
BASIS                   g3large
omega			100
mem_static              760
max_scf_cycles          200
scf_final_print         1
sym_ignore              true
$end

