 
$molecule
-1,2
C         -0.00077        0.00000        0.00316
C         -0.00039        0.00000        1.51673
Cl         1.68521        0.00000       -0.66697
H         -0.48079       -0.88419       -0.40614
H         -0.48079        0.88419       -0.40614
H         -1.03109        0.00000        1.87846
H          0.50035       -0.88326        1.91002
H          0.50035        0.88326        1.91002
$end

$comment
negative
$end

$xc_functional
C PBE   1.00
X wPBE  1.00
$end

$rem
SYMMETRY_DECOMPOSITION	0
exchange 		general
LRC_DFT                 true
BASIS                   g3large
omega			100
mem_static              760
max_scf_cycles          200
scf_final_print         1
sym_ignore              true
$end

@@@
 
$molecule
0,1
C         -0.00077        0.00000        0.00316
C         -0.00039        0.00000        1.51673
Cl         1.68521        0.00000       -0.66697
H         -0.48079       -0.88419       -0.40614
H         -0.48079        0.88419       -0.40614
H         -1.03109        0.00000        1.87846
H          0.50035       -0.88326        1.91002
H          0.50035        0.88326        1.91002
$end

$comment
neutral
$end

$xc_functional
C PBE   1.00
X wPBE  1.00
$end


$rem
SYMMETRY_DECOMPOSITION	0
LRC_DFT                 true
exchange 		general
BASIS                   g3large
omega			100
mem_static              760
max_scf_cycles          200
scf_final_print         1
sym_ignore              true
$end

@@@
 
$molecule
1,2
C         -0.00077        0.00000        0.00316
C         -0.00039        0.00000        1.51673
Cl         1.68521        0.00000       -0.66697
H         -0.48079       -0.88419       -0.40614
H         -0.48079        0.88419       -0.40614
H         -1.03109        0.00000        1.87846
H          0.50035       -0.88326        1.91002
H          0.50035        0.88326        1.91002
$end

$comment
positive
$end

$xc_functional
C PBE   1.00
X wPBE  1.00
$end

$rem
SYMMETRY_DECOMPOSITION	0
LRC_DFT                 true
exchange 		general
BASIS                   g3large
omega			100
mem_static              760
max_scf_cycles          200
scf_final_print         1
sym_ignore              true
$end

