 
$molecule
-1,2
C          0.00000        0.00000        0.00161
C          1.26432        0.00000        0.84487
C         -1.26432        0.00000        0.84487
H          0.00000       -0.87388       -0.65599
H          0.00000        0.87388       -0.65599
H          2.16245        0.00000        0.22489
H         -2.16245        0.00000        0.22489
H          1.30486        0.88074        1.49001
H          1.30486       -0.88074        1.49001
H         -1.30486       -0.88074        1.49001
H         -1.30486        0.88074        1.49001
$end

$comment
negative
$end

$xc_functional
C PBE   1.00
X wPBE  1.00
$end

$rem
SYMMETRY_DECOMPOSITION	0
exchange 		general
LRC_DFT                 true
BASIS                   g3large
omega			410
mem_static              760
max_scf_cycles          200
scf_final_print         1
sym_ignore              true
$end

@@@
 
$molecule
0,1
C          0.00000        0.00000        0.00161
C          1.26432        0.00000        0.84487
C         -1.26432        0.00000        0.84487
H          0.00000       -0.87388       -0.65599
H          0.00000        0.87388       -0.65599
H          2.16245        0.00000        0.22489
H         -2.16245        0.00000        0.22489
H          1.30486        0.88074        1.49001
H          1.30486       -0.88074        1.49001
H         -1.30486       -0.88074        1.49001
H         -1.30486        0.88074        1.49001
$end

$comment
neutral
$end

$xc_functional
C PBE   1.00
X wPBE  1.00
$end


$rem
SYMMETRY_DECOMPOSITION	0
LRC_DFT                 true
exchange 		general
BASIS                   g3large
omega			410
mem_static              760
max_scf_cycles          200
scf_final_print         1
sym_ignore              true
$end

@@@
 
$molecule
1,2
C          0.00000        0.00000        0.00161
C          1.26432        0.00000        0.84487
C         -1.26432        0.00000        0.84487
H          0.00000       -0.87388       -0.65599
H          0.00000        0.87388       -0.65599
H          2.16245        0.00000        0.22489
H         -2.16245        0.00000        0.22489
H          1.30486        0.88074        1.49001
H          1.30486       -0.88074        1.49001
H         -1.30486       -0.88074        1.49001
H         -1.30486        0.88074        1.49001
$end

$comment
positive
$end

$xc_functional
C PBE   1.00
X wPBE  1.00
$end

$rem
SYMMETRY_DECOMPOSITION	0
LRC_DFT                 true
exchange 		general
BASIS                   g3large
omega			410
mem_static              760
max_scf_cycles          200
scf_final_print         1
sym_ignore              true
$end

