 
$molecule
-1,2
C          1.12653        0.00000        0.31240
C         -1.12653        0.00000        0.31240
C          0.00000       -0.73568       -0.33092
C          0.00000        0.73568       -0.33092
H          1.20782        0.00000        1.40133
H          2.07917        0.00000       -0.21282
H         -1.20782        0.00000        1.40133
H         -2.07917        0.00000       -0.21282
H          0.00000       -1.43661       -1.15179
H          0.00000        1.43661       -1.15179
$end

$comment
negative
$end

$xc_functional
C PBE   1.00
X wPBE  1.00
$end

$rem
SYMMETRY_DECOMPOSITION	0
exchange 		general
LRC_DFT                 true
BASIS                   g3large
omega			310
mem_static              760
max_scf_cycles          200
scf_final_print         1
sym_ignore              true
$end

@@@
 
$molecule
0,1
C          1.12653        0.00000        0.31240
C         -1.12653        0.00000        0.31240
C          0.00000       -0.73568       -0.33092
C          0.00000        0.73568       -0.33092
H          1.20782        0.00000        1.40133
H          2.07917        0.00000       -0.21282
H         -1.20782        0.00000        1.40133
H         -2.07917        0.00000       -0.21282
H          0.00000       -1.43661       -1.15179
H          0.00000        1.43661       -1.15179
$end

$comment
neutral
$end

$xc_functional
C PBE   1.00
X wPBE  1.00
$end


$rem
SYMMETRY_DECOMPOSITION	0
LRC_DFT                 true
exchange 		general
BASIS                   g3large
omega			310
mem_static              760
max_scf_cycles          200
scf_final_print         1
sym_ignore              true
$end

@@@
 
$molecule
1,2
C          1.12653        0.00000        0.31240
C         -1.12653        0.00000        0.31240
C          0.00000       -0.73568       -0.33092
C          0.00000        0.73568       -0.33092
H          1.20782        0.00000        1.40133
H          2.07917        0.00000       -0.21282
H         -1.20782        0.00000        1.40133
H         -2.07917        0.00000       -0.21282
H          0.00000       -1.43661       -1.15179
H          0.00000        1.43661       -1.15179
$end

$comment
positive
$end

$xc_functional
C PBE   1.00
X wPBE  1.00
$end

$rem
SYMMETRY_DECOMPOSITION	0
LRC_DFT                 true
exchange 		general
BASIS                   g3large
omega			310
mem_static              760
max_scf_cycles          200
scf_final_print         1
sym_ignore              true
$end

