 
$molecule
-1,2
C         -0.00199        0.00000        0.00717
C          0.00183        0.00000        1.31937
F          1.13163        0.00000       -0.70826
H         -0.88054        0.00000       -0.62880
H          0.92723        0.00000        1.88041
H         -0.93959        0.00000        1.85049
$end

$comment
negative
$end

$xc_functional
C PBE   1.00
X wPBE  1.00
$end

$rem
SYMMETRY_DECOMPOSITION	0
exchange 		general
LRC_DFT                 true
BASIS                   g3large
omega			420
mem_static              760
max_scf_cycles          200
scf_final_print         1
sym_ignore              true
$end

@@@
 
$molecule
0,1
C         -0.00199        0.00000        0.00717
C          0.00183        0.00000        1.31937
F          1.13163        0.00000       -0.70826
H         -0.88054        0.00000       -0.62880
H          0.92723        0.00000        1.88041
H         -0.93959        0.00000        1.85049
$end

$comment
neutral
$end

$xc_functional
C PBE   1.00
X wPBE  1.00
$end


$rem
SYMMETRY_DECOMPOSITION	0
LRC_DFT                 true
exchange 		general
BASIS                   g3large
omega			420
mem_static              760
max_scf_cycles          200
scf_final_print         1
sym_ignore              true
$end

@@@
 
$molecule
1,2
C         -0.00199        0.00000        0.00717
C          0.00183        0.00000        1.31937
F          1.13163        0.00000       -0.70826
H         -0.88054        0.00000       -0.62880
H          0.92723        0.00000        1.88041
H         -0.93959        0.00000        1.85049
$end

$comment
positive
$end

$xc_functional
C PBE   1.00
X wPBE  1.00
$end

$rem
SYMMETRY_DECOMPOSITION	0
LRC_DFT                 true
exchange 		general
BASIS                   g3large
omega			420
mem_static              760
max_scf_cycles          200
scf_final_print         1
sym_ignore              true
$end

