 
$molecule
-1,2
H          0.00000        0.00000        0.00643
N          0.00000        0.00000        1.01311
C          1.11858        0.00000        1.79998
C         -1.11858        0.00000        1.79998
C          0.71011        0.00000        3.10845
C         -0.71011        0.00000        3.10845
H          2.10903        0.00000        1.36551
H         -2.10903        0.00000        1.36551
H          1.36021        0.00000        3.97341
H         -1.36021        0.00000        3.97341
$end

$comment
negative
$end

$xc_functional
C PBE   1.00
X wPBE  1.00
$end

$rem
SYMMETRY_DECOMPOSITION	0
exchange 		general
LRC_DFT                 true
BASIS                   g3large
omega			800
mem_static              760
max_scf_cycles          200
scf_final_print         1
sym_ignore              true
$end

@@@
 
$molecule
0,1
H          0.00000        0.00000        0.00643
N          0.00000        0.00000        1.01311
C          1.11858        0.00000        1.79998
C         -1.11858        0.00000        1.79998
C          0.71011        0.00000        3.10845
C         -0.71011        0.00000        3.10845
H          2.10903        0.00000        1.36551
H         -2.10903        0.00000        1.36551
H          1.36021        0.00000        3.97341
H         -1.36021        0.00000        3.97341
$end

$comment
neutral
$end

$xc_functional
C PBE   1.00
X wPBE  1.00
$end


$rem
SYMMETRY_DECOMPOSITION	0
LRC_DFT                 true
exchange 		general
BASIS                   g3large
omega			800
mem_static              760
max_scf_cycles          200
scf_final_print         1
sym_ignore              true
$end

@@@
 
$molecule
1,2
H          0.00000        0.00000        0.00643
N          0.00000        0.00000        1.01311
C          1.11858        0.00000        1.79998
C         -1.11858        0.00000        1.79998
C          0.71011        0.00000        3.10845
C         -0.71011        0.00000        3.10845
H          2.10903        0.00000        1.36551
H         -2.10903        0.00000        1.36551
H          1.36021        0.00000        3.97341
H         -1.36021        0.00000        3.97341
$end

$comment
positive
$end

$xc_functional
C PBE   1.00
X wPBE  1.00
$end

$rem
SYMMETRY_DECOMPOSITION	0
LRC_DFT                 true
exchange 		general
BASIS                   g3large
omega			800
mem_static              760
max_scf_cycles          200
scf_final_print         1
sym_ignore              true
$end

