 
$molecule
-1,2
C          0.00000        0.00000        0.00332
C          1.27469        0.00000        0.84583
C         -1.27469        0.00000        0.84583
H          0.00000       -0.87297       -0.65474
H          0.00000        0.87297       -0.65474
H          2.16878        0.00000        0.22088
H         -2.16878        0.00000        0.22088
H          1.32167        0.88020        1.49048
H          1.32167       -0.88020        1.49048
H         -1.32167       -0.88020        1.49048
H         -1.32167        0.88020        1.49048
$end

$comment
negative
$end

$xc_functional
C PBE   1.00
X wPBE  1.00
$end

$rem
SYMMETRY_DECOMPOSITION	0
exchange 		general
LRC_DFT                 true
BASIS                   g3large
omega			100
mem_static              760
max_scf_cycles          200
scf_final_print         1
sym_ignore              true
$end

@@@
 
$molecule
0,1
C          0.00000        0.00000        0.00332
C          1.27469        0.00000        0.84583
C         -1.27469        0.00000        0.84583
H          0.00000       -0.87297       -0.65474
H          0.00000        0.87297       -0.65474
H          2.16878        0.00000        0.22088
H         -2.16878        0.00000        0.22088
H          1.32167        0.88020        1.49048
H          1.32167       -0.88020        1.49048
H         -1.32167       -0.88020        1.49048
H         -1.32167        0.88020        1.49048
$end

$comment
neutral
$end

$xc_functional
C PBE   1.00
X wPBE  1.00
$end


$rem
SYMMETRY_DECOMPOSITION	0
LRC_DFT                 true
exchange 		general
BASIS                   g3large
omega			100
mem_static              760
max_scf_cycles          200
scf_final_print         1
sym_ignore              true
$end

@@@
 
$molecule
1,2
C          0.00000        0.00000        0.00332
C          1.27469        0.00000        0.84583
C         -1.27469        0.00000        0.84583
H          0.00000       -0.87297       -0.65474
H          0.00000        0.87297       -0.65474
H          2.16878        0.00000        0.22088
H         -2.16878        0.00000        0.22088
H          1.32167        0.88020        1.49048
H          1.32167       -0.88020        1.49048
H         -1.32167       -0.88020        1.49048
H         -1.32167        0.88020        1.49048
$end

$comment
positive
$end

$xc_functional
C PBE   1.00
X wPBE  1.00
$end

$rem
SYMMETRY_DECOMPOSITION	0
LRC_DFT                 true
exchange 		general
BASIS                   g3large
omega			100
mem_static              760
max_scf_cycles          200
scf_final_print         1
sym_ignore              true
$end

