 
$molecule
-1,2
C         -0.00016        0.00000        0.00174
H          0.00032        0.00000        1.08208
Cl         1.69381        0.00000       -0.53709
Cl        -0.84698       -1.46585       -0.53734
Cl        -0.84698        1.46585       -0.53734
$end

$comment
negative
$end

$xc_functional
C PBE   1.00
X wPBE  1.00
$end

$rem
SYMMETRY_DECOMPOSITION	0
exchange 		general
LRC_DFT                 true
BASIS                   g3large
omega			700
mem_static              760
max_scf_cycles          200
scf_final_print         1
sym_ignore              true
$end

@@@
 
$molecule
0,1
C         -0.00016        0.00000        0.00174
H          0.00032        0.00000        1.08208
Cl         1.69381        0.00000       -0.53709
Cl        -0.84698       -1.46585       -0.53734
Cl        -0.84698        1.46585       -0.53734
$end

$comment
neutral
$end

$xc_functional
C PBE   1.00
X wPBE  1.00
$end


$rem
SYMMETRY_DECOMPOSITION	0
LRC_DFT                 true
exchange 		general
BASIS                   g3large
omega			700
mem_static              760
max_scf_cycles          200
scf_final_print         1
sym_ignore              true
$end

@@@
 
$molecule
1,2
C         -0.00016        0.00000        0.00174
H          0.00032        0.00000        1.08208
Cl         1.69381        0.00000       -0.53709
Cl        -0.84698       -1.46585       -0.53734
Cl        -0.84698        1.46585       -0.53734
$end

$comment
positive
$end

$xc_functional
C PBE   1.00
X wPBE  1.00
$end

$rem
SYMMETRY_DECOMPOSITION	0
LRC_DFT                 true
exchange 		general
BASIS                   g3large
omega			700
mem_static              760
max_scf_cycles          200
scf_final_print         1
sym_ignore              true
$end

