 
$molecule
-1,2
 C        27.589041       23.466286       25.344061
 C        26.339153       23.225647       24.775341
 C        25.423603       24.268255       24.563448
 C        25.808182       25.560291       24.954315
 C        27.058195       25.800951       25.523088
 C        27.973625       24.758410       25.735035
 H        28.281313       22.632208       25.481283
 H        26.068596       22.204544       24.496038
 H        25.116135       26.394463       24.817167
 H        27.328890       26.822035       25.802298
 H        23.708551       24.814869       23.583281
 H        24.079388       23.185360       23.458334
 H        29.688467       24.211771       26.715748
 H        29.317875       25.841635       26.839811
 N        29.254854       25.009876       26.258593
 N        24.142208       24.016731       24.040218

$end

$comment
negative
$end

$xc_functional
   X HF 1.0
   X BNL 1.0
   C LYP 1.0
$end

$rem
SYMMETRY_DECOMPOSITION	0
exchange 		general
BASIS                   g3large
omega			700
separate_jk		true
mem_static              760
max_scf_cycles          200
scf_final_print         1
sym_ignore              true
$end

@@@
 
$molecule
0,1
 C        27.589041       23.466286       25.344061
 C        26.339153       23.225647       24.775341
 C        25.423603       24.268255       24.563448
 C        25.808182       25.560291       24.954315
 C        27.058195       25.800951       25.523088
 C        27.973625       24.758410       25.735035
 H        28.281313       22.632208       25.481283
 H        26.068596       22.204544       24.496038
 H        25.116135       26.394463       24.817167
 H        27.328890       26.822035       25.802298
 H        23.708551       24.814869       23.583281
 H        24.079388       23.185360       23.458334
 H        29.688467       24.211771       26.715748
 H        29.317875       25.841635       26.839811
 N        29.254854       25.009876       26.258593
 N        24.142208       24.016731       24.040218

$end

$comment
neutral
$end

$xc_functional
   X HF 1.0
   X BNL 1.0
   C LYP 1.0
$end

$rem
SYMMETRY_DECOMPOSITION	0
exchange 		general
BASIS                   g3large
omega			700
separate_jk		true
mem_static              760
max_scf_cycles          200
scf_final_print         1
sym_ignore              true
$end

@@@
 
$molecule
1,2
 C        27.589041       23.466286       25.344061
 C        26.339153       23.225647       24.775341
 C        25.423603       24.268255       24.563448
 C        25.808182       25.560291       24.954315
 C        27.058195       25.800951       25.523088
 C        27.973625       24.758410       25.735035
 H        28.281313       22.632208       25.481283
 H        26.068596       22.204544       24.496038
 H        25.116135       26.394463       24.817167
 H        27.328890       26.822035       25.802298
 H        23.708551       24.814869       23.583281
 H        24.079388       23.185360       23.458334
 H        29.688467       24.211771       26.715748
 H        29.317875       25.841635       26.839811
 N        29.254854       25.009876       26.258593
 N        24.142208       24.016731       24.040218

$end

$comment
positive
$end

$xc_functional
   X HF 1.0
   X BNL 1.0
   C LYP 1.0
$end

$rem
SYMMETRY_DECOMPOSITION	0
exchange 		general
BASIS                   g3large
omega			700
separate_jk		true
mem_static              760
max_scf_cycles          200
scf_final_print         1
sym_ignore              true
$end

