 
$molecule
-1,2
C          0.00000        0.00000        1.36409
C          0.64319        0.00000        0.00282
C         -0.64319        0.00000        0.00282
H          0.00000        0.91020        1.96006
H          0.00000       -0.91020        1.96006
H          1.57121        0.00000       -0.53874
H         -1.57121        0.00000       -0.53874
$end

$comment
negative
$end

$xc_functional
C PBE   1.00
X wPBE  1.00
$end

$rem
SYMMETRY_DECOMPOSITION	0
exchange 		general
LRC_DFT                 true
BASIS                   g3large
omega			2000
mem_static              760
max_scf_cycles          200
scf_final_print         1
sym_ignore              true
$end

@@@
 
$molecule
0,1
C          0.00000        0.00000        1.36409
C          0.64319        0.00000        0.00282
C         -0.64319        0.00000        0.00282
H          0.00000        0.91020        1.96006
H          0.00000       -0.91020        1.96006
H          1.57121        0.00000       -0.53874
H         -1.57121        0.00000       -0.53874
$end

$comment
neutral
$end

$xc_functional
C PBE   1.00
X wPBE  1.00
$end


$rem
SYMMETRY_DECOMPOSITION	0
LRC_DFT                 true
exchange 		general
BASIS                   g3large
omega			2000
mem_static              760
max_scf_cycles          200
scf_final_print         1
sym_ignore              true
$end

@@@
 
$molecule
1,2
C          0.00000        0.00000        1.36409
C          0.64319        0.00000        0.00282
C         -0.64319        0.00000        0.00282
H          0.00000        0.91020        1.96006
H          0.00000       -0.91020        1.96006
H          1.57121        0.00000       -0.53874
H         -1.57121        0.00000       -0.53874
$end

$comment
positive
$end

$xc_functional
C PBE   1.00
X wPBE  1.00
$end

$rem
SYMMETRY_DECOMPOSITION	0
LRC_DFT                 true
exchange 		general
BASIS                   g3large
omega			2000
mem_static              760
max_scf_cycles          200
scf_final_print         1
sym_ignore              true
$end

