 
$molecule
-1,2
C          0.00460       -0.00130        0.00574
N          0.00687       -0.01294        1.45253
C          1.34042       -0.00073        2.01411
H          0.58692       -0.82166       -0.44442
H         -1.01971       -0.05995       -0.36668
H          0.43169        0.94009       -0.35110
H         -0.51250       -0.80809        1.79852
H          1.98199       -0.81952        1.64966
H          1.28823       -0.06199        3.10265
H          1.83351        0.94180        1.76034
$end

$comment
negative
$end

$xc_functional
C PBE   1.00
X wPBE  1.00
$end

$rem
SYMMETRY_DECOMPOSITION	0
exchange 		general
LRC_DFT                 true
BASIS                   g3large
omega			1000
mem_static              760
max_scf_cycles          200
scf_final_print         1
sym_ignore              true
$end

@@@
 
$molecule
0,1
C          0.00460       -0.00130        0.00574
N          0.00687       -0.01294        1.45253
C          1.34042       -0.00073        2.01411
H          0.58692       -0.82166       -0.44442
H         -1.01971       -0.05995       -0.36668
H          0.43169        0.94009       -0.35110
H         -0.51250       -0.80809        1.79852
H          1.98199       -0.81952        1.64966
H          1.28823       -0.06199        3.10265
H          1.83351        0.94180        1.76034
$end

$comment
neutral
$end

$xc_functional
C PBE   1.00
X wPBE  1.00
$end


$rem
SYMMETRY_DECOMPOSITION	0
LRC_DFT                 true
exchange 		general
BASIS                   g3large
omega			1000
mem_static              760
max_scf_cycles          200
scf_final_print         1
sym_ignore              true
$end

@@@
 
$molecule
1,2
C          0.00460       -0.00130        0.00574
N          0.00687       -0.01294        1.45253
C          1.34042       -0.00073        2.01411
H          0.58692       -0.82166       -0.44442
H         -1.01971       -0.05995       -0.36668
H          0.43169        0.94009       -0.35110
H         -0.51250       -0.80809        1.79852
H          1.98199       -0.81952        1.64966
H          1.28823       -0.06199        3.10265
H          1.83351        0.94180        1.76034
$end

$comment
positive
$end

$xc_functional
C PBE   1.00
X wPBE  1.00
$end

$rem
SYMMETRY_DECOMPOSITION	0
LRC_DFT                 true
exchange 		general
BASIS                   g3large
omega			1000
mem_static              760
max_scf_cycles          200
scf_final_print         1
sym_ignore              true
$end

