 
$molecule
-1,1
C          0.00003        0.00000        0.00161
C          0.01074        0.00000        1.48545
H          1.01809        0.00000       -0.41467
H         -0.49647       -0.88427       -0.40207
H         -0.49647        0.88427       -0.40207
H          0.07786       -0.92376        2.04173
H          0.07786        0.92376        2.04173
$end

$comment
negative
$end

$xc_functional
C PBE   1.00
X wPBE  1.00
$end

$rem
SYMMETRY_DECOMPOSITION	0
exchange 		general
LRC_DFT                 true
BASIS                   g3large
omega			900
mem_static              760
max_scf_cycles          200
scf_final_print         1
sym_ignore              true
$end

@@@
 
$molecule
0,2
C          0.00003        0.00000        0.00161
C          0.01074        0.00000        1.48545
H          1.01809        0.00000       -0.41467
H         -0.49647       -0.88427       -0.40207
H         -0.49647        0.88427       -0.40207
H          0.07786       -0.92376        2.04173
H          0.07786        0.92376        2.04173
$end

$comment
neutral
$end

$xc_functional
C PBE   1.00
X wPBE  1.00
$end


$rem
SYMMETRY_DECOMPOSITION	0
LRC_DFT                 true
exchange 		general
BASIS                   g3large
omega			900
mem_static              760
max_scf_cycles          200
scf_final_print         1
sym_ignore              true
$end

@@@
 
$molecule
1,1
C          0.00003        0.00000        0.00161
C          0.01074        0.00000        1.48545
H          1.01809        0.00000       -0.41467
H         -0.49647       -0.88427       -0.40207
H         -0.49647        0.88427       -0.40207
H          0.07786       -0.92376        2.04173
H          0.07786        0.92376        2.04173
$end

$comment
positive
$end

$xc_functional
C PBE   1.00
X wPBE  1.00
$end

$rem
SYMMETRY_DECOMPOSITION	0
LRC_DFT                 true
exchange 		general
BASIS                   g3large
omega			900
mem_static              760
max_scf_cycles          200
scf_final_print         1
sym_ignore              true
$end

