 
$molecule
-1,2
C          0.00153        0.00000       -0.00170
N          0.02691        0.00000        1.45040
H          0.98841        0.00000       -0.48072
H          0.49984       -0.81525        1.81295
H          0.49984        0.81525        1.81295
H         -0.54295       -0.87642       -0.35515
H         -0.54295        0.87642       -0.35515
$end

$comment
negative
$end

$xc_functional
C PBE   1.00
X wPBE  1.00
$end

$rem
SYMMETRY_DECOMPOSITION	0
exchange 		general
LRC_DFT                 true
BASIS                   g3large
omega			350
mem_static              760
max_scf_cycles          200
scf_final_print         1
sym_ignore              true
$end

@@@
 
$molecule
0,1
C          0.00153        0.00000       -0.00170
N          0.02691        0.00000        1.45040
H          0.98841        0.00000       -0.48072
H          0.49984       -0.81525        1.81295
H          0.49984        0.81525        1.81295
H         -0.54295       -0.87642       -0.35515
H         -0.54295        0.87642       -0.35515
$end

$comment
neutral
$end

$xc_functional
C PBE   1.00
X wPBE  1.00
$end


$rem
SYMMETRY_DECOMPOSITION	0
LRC_DFT                 true
exchange 		general
BASIS                   g3large
omega			350
mem_static              760
max_scf_cycles          200
scf_final_print         1
sym_ignore              true
$end

@@@
 
$molecule
1,2
C          0.00153        0.00000       -0.00170
N          0.02691        0.00000        1.45040
H          0.98841        0.00000       -0.48072
H          0.49984       -0.81525        1.81295
H          0.49984        0.81525        1.81295
H         -0.54295       -0.87642       -0.35515
H         -0.54295        0.87642       -0.35515
$end

$comment
positive
$end

$xc_functional
C PBE   1.00
X wPBE  1.00
$end

$rem
SYMMETRY_DECOMPOSITION	0
LRC_DFT                 true
exchange 		general
BASIS                   g3large
omega			350
mem_static              760
max_scf_cycles          200
scf_final_print         1
sym_ignore              true
$end

