 
$molecule
-1,2
C         -0.00253        0.00000        0.00406
C          0.00253        0.00000        1.52096
O          1.01612        0.00000       -0.61725
H         -1.00114        0.00000       -0.46247
O         -1.01612        0.00000        2.14226
H          1.00114        0.00000        1.98749
$end

$comment
negative
$end

$xc_functional
C PBE   1.00
X wPBE  1.00
$end

$rem
SYMMETRY_DECOMPOSITION	0
exchange 		general
LRC_DFT                 true
BASIS                   g3large
omega			800
mem_static              760
max_scf_cycles          200
scf_final_print         1
sym_ignore              true
$end

@@@
 
$molecule
0,1
C         -0.00253        0.00000        0.00406
C          0.00253        0.00000        1.52096
O          1.01612        0.00000       -0.61725
H         -1.00114        0.00000       -0.46247
O         -1.01612        0.00000        2.14226
H          1.00114        0.00000        1.98749
$end

$comment
neutral
$end

$xc_functional
C PBE   1.00
X wPBE  1.00
$end


$rem
SYMMETRY_DECOMPOSITION	0
LRC_DFT                 true
exchange 		general
BASIS                   g3large
omega			800
mem_static              760
max_scf_cycles          200
scf_final_print         1
sym_ignore              true
$end

@@@
 
$molecule
1,2
C         -0.00253        0.00000        0.00406
C          0.00253        0.00000        1.52096
O          1.01612        0.00000       -0.61725
H         -1.00114        0.00000       -0.46247
O         -1.01612        0.00000        2.14226
H          1.00114        0.00000        1.98749
$end

$comment
positive
$end

$xc_functional
C PBE   1.00
X wPBE  1.00
$end

$rem
SYMMETRY_DECOMPOSITION	0
LRC_DFT                 true
exchange 		general
BASIS                   g3large
omega			800
mem_static              760
max_scf_cycles          200
scf_final_print         1
sym_ignore              true
$end

