 
$molecule
-1,2
O          0.00792       -0.02167        0.02898
O         -0.02279       -0.00342        1.42666
H          0.94759        0.02420       -0.15430
H         -0.43330        0.84308        1.61007
$end

$comment
negative
$end

$xc_functional
C PBE   1.00
X wPBE  1.00
$end

$rem
SYMMETRY_DECOMPOSITION	0
exchange 		general
LRC_DFT                 true
BASIS                   g3large
omega			520
mem_static              760
max_scf_cycles          200
scf_final_print         1
sym_ignore              true
$end

@@@
 
$molecule
0,1
O          0.00792       -0.02167        0.02898
O         -0.02279       -0.00342        1.42666
H          0.94759        0.02420       -0.15430
H         -0.43330        0.84308        1.61007
$end

$comment
neutral
$end

$xc_functional
C PBE   1.00
X wPBE  1.00
$end


$rem
SYMMETRY_DECOMPOSITION	0
LRC_DFT                 true
exchange 		general
BASIS                   g3large
omega			520
mem_static              760
max_scf_cycles          200
scf_final_print         1
sym_ignore              true
$end

@@@
 
$molecule
1,2
O          0.00792       -0.02167        0.02898
O         -0.02279       -0.00342        1.42666
H          0.94759        0.02420       -0.15430
H         -0.43330        0.84308        1.61007
$end

$comment
positive
$end

$xc_functional
C PBE   1.00
X wPBE  1.00
$end

$rem
SYMMETRY_DECOMPOSITION	0
LRC_DFT                 true
exchange 		general
BASIS                   g3large
omega			520
mem_static              760
max_scf_cycles          200
scf_final_print         1
sym_ignore              true
$end

