 
$molecule
-1,2
C          0.00000        0.00000        1.35715
C          0.64179        0.00000        0.00694
C         -0.64179        0.00000        0.00694
H          0.00000        0.91273        1.95307
H          0.00000       -0.91273        1.95307
H          1.57361        0.00000       -0.53239
H         -1.57361        0.00000       -0.53239
$end

$comment
negative
$end

$xc_functional
C PBE   1.00
X wPBE  1.00
$end

$rem
SYMMETRY_DECOMPOSITION	0
exchange 		general
LRC_DFT                 true
BASIS                   g3large
omega			900
mem_static              760
max_scf_cycles          200
scf_final_print         1
sym_ignore              true
$end

@@@
 
$molecule
0,1
C          0.00000        0.00000        1.35715
C          0.64179        0.00000        0.00694
C         -0.64179        0.00000        0.00694
H          0.00000        0.91273        1.95307
H          0.00000       -0.91273        1.95307
H          1.57361        0.00000       -0.53239
H         -1.57361        0.00000       -0.53239
$end

$comment
neutral
$end

$xc_functional
C PBE   1.00
X wPBE  1.00
$end


$rem
SYMMETRY_DECOMPOSITION	0
LRC_DFT                 true
exchange 		general
BASIS                   g3large
omega			900
mem_static              760
max_scf_cycles          200
scf_final_print         1
sym_ignore              true
$end

@@@
 
$molecule
1,2
C          0.00000        0.00000        1.35715
C          0.64179        0.00000        0.00694
C         -0.64179        0.00000        0.00694
H          0.00000        0.91273        1.95307
H          0.00000       -0.91273        1.95307
H          1.57361        0.00000       -0.53239
H         -1.57361        0.00000       -0.53239
$end

$comment
positive
$end

$xc_functional
C PBE   1.00
X wPBE  1.00
$end

$rem
SYMMETRY_DECOMPOSITION	0
LRC_DFT                 true
exchange 		general
BASIS                   g3large
omega			900
mem_static              760
max_scf_cycles          200
scf_final_print         1
sym_ignore              true
$end

