 
$molecule
-1,2
C         -0.29808       -1.09946        0.72503
O         -0.30904        0.32516        0.74631
H         -0.69144       -1.39282        1.69331
H          0.71574       -1.47574        0.59125
H         -0.92981       -1.47835       -0.07794
N          0.15421        0.93408       -0.37338
O          0.50411        0.19883       -1.22108
$end

$comment
negative
$end

$xc_functional
C PBE   1.00
X wPBE  1.00
$end

$rem
SYMMETRY_DECOMPOSITION	0
exchange 		general
LRC_DFT                 true
BASIS                   g3large
omega			700
mem_static              760
max_scf_cycles          200
scf_final_print         1
sym_ignore              true
$end

@@@
 
$molecule
0,1
C         -0.29808       -1.09946        0.72503
O         -0.30904        0.32516        0.74631
H         -0.69144       -1.39282        1.69331
H          0.71574       -1.47574        0.59125
H         -0.92981       -1.47835       -0.07794
N          0.15421        0.93408       -0.37338
O          0.50411        0.19883       -1.22108
$end

$comment
neutral
$end

$xc_functional
C PBE   1.00
X wPBE  1.00
$end


$rem
SYMMETRY_DECOMPOSITION	0
LRC_DFT                 true
exchange 		general
BASIS                   g3large
omega			700
mem_static              760
max_scf_cycles          200
scf_final_print         1
sym_ignore              true
$end

@@@
 
$molecule
1,2
C         -0.29808       -1.09946        0.72503
O         -0.30904        0.32516        0.74631
H         -0.69144       -1.39282        1.69331
H          0.71574       -1.47574        0.59125
H         -0.92981       -1.47835       -0.07794
N          0.15421        0.93408       -0.37338
O          0.50411        0.19883       -1.22108
$end

$comment
positive
$end

$xc_functional
C PBE   1.00
X wPBE  1.00
$end

$rem
SYMMETRY_DECOMPOSITION	0
LRC_DFT                 true
exchange 		general
BASIS                   g3large
omega			700
mem_static              760
max_scf_cycles          200
scf_final_print         1
sym_ignore              true
$end

