 
$molecule
-1,1
C         -0.01114       -0.00000        0.01552
C         -0.09766       -0.00000        1.34199
H          0.95965       -0.00000       -0.47008
H         -0.91403        0.00000       -0.58541
H          0.80086        0.00000        1.95088
$end

$comment
negative
$end

$xc_functional
C PBE   1.00
X wPBE  1.00
$end

$rem
SYMMETRY_DECOMPOSITION	0
exchange 		general
LRC_DFT                 true
BASIS                   g3large
omega			700
mem_static              760
max_scf_cycles          200
scf_final_print         1
sym_ignore              true
$end

@@@
 
$molecule
0,2
C         -0.01114       -0.00000        0.01552
C         -0.09766       -0.00000        1.34199
H          0.95965       -0.00000       -0.47008
H         -0.91403        0.00000       -0.58541
H          0.80086        0.00000        1.95088
$end

$comment
neutral
$end

$xc_functional
C PBE   1.00
X wPBE  1.00
$end


$rem
SYMMETRY_DECOMPOSITION	0
LRC_DFT                 true
exchange 		general
BASIS                   g3large
omega			700
mem_static              760
max_scf_cycles          200
scf_final_print         1
sym_ignore              true
$end

@@@
 
$molecule
1,1
C         -0.01114       -0.00000        0.01552
C         -0.09766       -0.00000        1.34199
H          0.95965       -0.00000       -0.47008
H         -0.91403        0.00000       -0.58541
H          0.80086        0.00000        1.95088
$end

$comment
positive
$end

$xc_functional
C PBE   1.00
X wPBE  1.00
$end

$rem
SYMMETRY_DECOMPOSITION	0
LRC_DFT                 true
exchange 		general
BASIS                   g3large
omega			700
mem_static              760
max_scf_cycles          200
scf_final_print         1
sym_ignore              true
$end

