 
$molecule
-1,2
Si         0.00075        0.00000        0.00092
Si        -0.00075        0.00000        2.34932
H          1.39041        0.00000       -0.51547
H         -0.69473       -1.20406       -0.51369
H         -0.69473        1.20406       -0.51369
H         -1.39041        0.00000        2.86570
H          0.69473       -1.20406        2.86392
H          0.69473        1.20406        2.86392
$end

$comment
negative
$end

$xc_functional
C PBE   1.00
X wPBE  1.00
$end

$rem
SYMMETRY_DECOMPOSITION	0
exchange 		general
LRC_DFT                 true
BASIS                   g3large
omega			2000
mem_static              760
max_scf_cycles          200
scf_final_print         1
sym_ignore              true
$end

@@@
 
$molecule
0,1
Si         0.00075        0.00000        0.00092
Si        -0.00075        0.00000        2.34932
H          1.39041        0.00000       -0.51547
H         -0.69473       -1.20406       -0.51369
H         -0.69473        1.20406       -0.51369
H         -1.39041        0.00000        2.86570
H          0.69473       -1.20406        2.86392
H          0.69473        1.20406        2.86392
$end

$comment
neutral
$end

$xc_functional
C PBE   1.00
X wPBE  1.00
$end


$rem
SYMMETRY_DECOMPOSITION	0
LRC_DFT                 true
exchange 		general
BASIS                   g3large
omega			2000
mem_static              760
max_scf_cycles          200
scf_final_print         1
sym_ignore              true
$end

@@@
 
$molecule
1,2
Si         0.00075        0.00000        0.00092
Si        -0.00075        0.00000        2.34932
H          1.39041        0.00000       -0.51547
H         -0.69473       -1.20406       -0.51369
H         -0.69473        1.20406       -0.51369
H         -1.39041        0.00000        2.86570
H          0.69473       -1.20406        2.86392
H          0.69473        1.20406        2.86392
$end

$comment
positive
$end

$xc_functional
C PBE   1.00
X wPBE  1.00
$end

$rem
SYMMETRY_DECOMPOSITION	0
LRC_DFT                 true
exchange 		general
BASIS                   g3large
omega			2000
mem_static              760
max_scf_cycles          200
scf_final_print         1
sym_ignore              true
$end

