 
$molecule
-1,2
C          0.00000        0.00000        1.00000
C          1.26639        0.76332        1.00000
C          1.26639       -0.76332        1.00000
C         -1.26639        0.00000        0.23668
C         -1.26639        0.00000        1.76332
H          1.56933        1.26454        1.91010
H          1.56933        1.26454        0.08990
H          1.56933       -1.26454        1.91010
H          1.56933       -1.26454        0.08990
H         -1.56933       -0.91010       -0.26454
H         -1.56933        0.91010       -0.26454
H         -1.56933       -0.91010        2.26454
H         -1.56933        0.91010        2.26454
$end

$comment
negative
$end

$xc_functional
C PBE   1.00
X wPBE  1.00
$end

$rem
SYMMETRY_DECOMPOSITION	0
exchange 		general
LRC_DFT                 true
BASIS                   g3large
omega			500
mem_static              760
max_scf_cycles          200
scf_final_print         1
sym_ignore              true
$end

@@@
 
$molecule
0,1
C          0.00000        0.00000        1.00000
C          1.26639        0.76332        1.00000
C          1.26639       -0.76332        1.00000
C         -1.26639        0.00000        0.23668
C         -1.26639        0.00000        1.76332
H          1.56933        1.26454        1.91010
H          1.56933        1.26454        0.08990
H          1.56933       -1.26454        1.91010
H          1.56933       -1.26454        0.08990
H         -1.56933       -0.91010       -0.26454
H         -1.56933        0.91010       -0.26454
H         -1.56933       -0.91010        2.26454
H         -1.56933        0.91010        2.26454
$end

$comment
neutral
$end

$xc_functional
C PBE   1.00
X wPBE  1.00
$end


$rem
SYMMETRY_DECOMPOSITION	0
LRC_DFT                 true
exchange 		general
BASIS                   g3large
omega			500
mem_static              760
max_scf_cycles          200
scf_final_print         1
sym_ignore              true
$end

@@@
 
$molecule
1,2
C          0.00000        0.00000        1.00000
C          1.26639        0.76332        1.00000
C          1.26639       -0.76332        1.00000
C         -1.26639        0.00000        0.23668
C         -1.26639        0.00000        1.76332
H          1.56933        1.26454        1.91010
H          1.56933        1.26454        0.08990
H          1.56933       -1.26454        1.91010
H          1.56933       -1.26454        0.08990
H         -1.56933       -0.91010       -0.26454
H         -1.56933        0.91010       -0.26454
H         -1.56933       -0.91010        2.26454
H         -1.56933        0.91010        2.26454
$end

$comment
positive
$end

$xc_functional
C PBE   1.00
X wPBE  1.00
$end

$rem
SYMMETRY_DECOMPOSITION	0
LRC_DFT                 true
exchange 		general
BASIS                   g3large
omega			500
mem_static              760
max_scf_cycles          200
scf_final_print         1
sym_ignore              true
$end

