 
$molecule
-1,2
C          0.00054        0.00000       -0.00016
Cl        -0.00050        0.00000        1.78118
Cl         1.68069        0.00000       -0.59402
Cl        -0.84037       -1.45363       -0.59351
Cl        -0.84037        1.45363       -0.59351
$end

$comment
negative
$end

$xc_functional
C PBE   1.00
X wPBE  1.00
$end

$rem
SYMMETRY_DECOMPOSITION	0
exchange 		general
LRC_DFT                 true
BASIS                   g3large
omega			100
mem_static              760
max_scf_cycles          200
scf_final_print         1
sym_ignore              true
$end

@@@
 
$molecule
0,1
C          0.00054        0.00000       -0.00016
Cl        -0.00050        0.00000        1.78118
Cl         1.68069        0.00000       -0.59402
Cl        -0.84037       -1.45363       -0.59351
Cl        -0.84037        1.45363       -0.59351
$end

$comment
neutral
$end

$xc_functional
C PBE   1.00
X wPBE  1.00
$end


$rem
SYMMETRY_DECOMPOSITION	0
LRC_DFT                 true
exchange 		general
BASIS                   g3large
omega			100
mem_static              760
max_scf_cycles          200
scf_final_print         1
sym_ignore              true
$end

@@@
 
$molecule
1,2
C          0.00054        0.00000       -0.00016
Cl        -0.00050        0.00000        1.78118
Cl         1.68069        0.00000       -0.59402
Cl        -0.84037       -1.45363       -0.59351
Cl        -0.84037        1.45363       -0.59351
$end

$comment
positive
$end

$xc_functional
C PBE   1.00
X wPBE  1.00
$end

$rem
SYMMETRY_DECOMPOSITION	0
LRC_DFT                 true
exchange 		general
BASIS                   g3large
omega			100
mem_static              760
max_scf_cycles          200
scf_final_print         1
sym_ignore              true
$end

