 
$molecule
-1,2
C         -0.00003        0.00000       -0.00397
C          0.00000        0.00000        1.19168
C         -0.00004        0.00000       -1.45982
H          0.00006        0.00000        2.25841
H          1.02083        0.00000       -1.84555
H         -0.51041       -0.88409       -1.84572
H         -0.51041        0.88409       -1.84572
$end

$comment
negative
$end

$xc_functional
C PBE   1.00
X wPBE  1.00
$end

$rem
SYMMETRY_DECOMPOSITION	0
exchange 		general
LRC_DFT                 true
BASIS                   g3large
omega			440
mem_static              760
max_scf_cycles          200
scf_final_print         1
sym_ignore              true
$end

@@@
 
$molecule
0,1
C         -0.00003        0.00000       -0.00397
C          0.00000        0.00000        1.19168
C         -0.00004        0.00000       -1.45982
H          0.00006        0.00000        2.25841
H          1.02083        0.00000       -1.84555
H         -0.51041       -0.88409       -1.84572
H         -0.51041        0.88409       -1.84572
$end

$comment
neutral
$end

$xc_functional
C PBE   1.00
X wPBE  1.00
$end


$rem
SYMMETRY_DECOMPOSITION	0
LRC_DFT                 true
exchange 		general
BASIS                   g3large
omega			440
mem_static              760
max_scf_cycles          200
scf_final_print         1
sym_ignore              true
$end

@@@
 
$molecule
1,2
C         -0.00003        0.00000       -0.00397
C          0.00000        0.00000        1.19168
C         -0.00004        0.00000       -1.45982
H          0.00006        0.00000        2.25841
H          1.02083        0.00000       -1.84555
H         -0.51041       -0.88409       -1.84572
H         -0.51041        0.88409       -1.84572
$end

$comment
positive
$end

$xc_functional
C PBE   1.00
X wPBE  1.00
$end

$rem
SYMMETRY_DECOMPOSITION	0
LRC_DFT                 true
exchange 		general
BASIS                   g3large
omega			440
mem_static              760
max_scf_cycles          200
scf_final_print         1
sym_ignore              true
$end

