 
$molecule
-1,2
O          0.00000        0.00000        0.00776
C          1.08719        0.00000        0.81613
C         -1.08719        0.00000        0.81613
C          0.71534        0.00000        2.11543
C         -0.71534        0.00000        2.11543
H          2.04621        0.00000        0.31888
H         -2.04621        0.00000        0.31888
H          1.37509        0.00000        2.97150
H         -1.37509        0.00000        2.97150
$end

$comment
negative
$end

$xc_functional
C PBE   1.00
X wPBE  1.00
$end

$rem
SYMMETRY_DECOMPOSITION	0
exchange 		general
LRC_DFT                 true
BASIS                   g3large
omega			260
mem_static              760
max_scf_cycles          200
scf_final_print         1
sym_ignore              true
$end

@@@
 
$molecule
0,1
O          0.00000        0.00000        0.00776
C          1.08719        0.00000        0.81613
C         -1.08719        0.00000        0.81613
C          0.71534        0.00000        2.11543
C         -0.71534        0.00000        2.11543
H          2.04621        0.00000        0.31888
H         -2.04621        0.00000        0.31888
H          1.37509        0.00000        2.97150
H         -1.37509        0.00000        2.97150
$end

$comment
neutral
$end

$xc_functional
C PBE   1.00
X wPBE  1.00
$end


$rem
SYMMETRY_DECOMPOSITION	0
LRC_DFT                 true
exchange 		general
BASIS                   g3large
omega			260
mem_static              760
max_scf_cycles          200
scf_final_print         1
sym_ignore              true
$end

@@@
 
$molecule
1,2
O          0.00000        0.00000        0.00776
C          1.08719        0.00000        0.81613
C         -1.08719        0.00000        0.81613
C          0.71534        0.00000        2.11543
C         -0.71534        0.00000        2.11543
H          2.04621        0.00000        0.31888
H         -2.04621        0.00000        0.31888
H          1.37509        0.00000        2.97150
H         -1.37509        0.00000        2.97150
$end

$comment
positive
$end

$xc_functional
C PBE   1.00
X wPBE  1.00
$end

$rem
SYMMETRY_DECOMPOSITION	0
LRC_DFT                 true
exchange 		general
BASIS                   g3large
omega			260
mem_static              760
max_scf_cycles          200
scf_final_print         1
sym_ignore              true
$end

