 
$molecule
-1,2
N          1.39192        0.00000        1.00000
C         -1.39471        0.00000        1.00000
C          0.69930        1.13676        1.00000
C          0.69930       -1.13676        1.00000
C         -0.68721       -1.19125        1.00000
C         -0.68721        1.19125        1.00000
H         -2.48184        0.00000        1.00000
H          1.28587        2.05509        1.00000
H          1.28587       -2.05509        1.00000
H         -1.19648       -2.15056        1.00000
H         -1.19648        2.15056        1.00000
$end

$comment
negative
$end

$xc_functional
C PBE   1.00
X wPBE  1.00
$end

$rem
SYMMETRY_DECOMPOSITION	0
exchange 		general
LRC_DFT                 true
BASIS                   g3large
omega			290
mem_static              760
max_scf_cycles          200
scf_final_print         1
sym_ignore              true
$end

@@@
 
$molecule
0,1
N          1.39192        0.00000        1.00000
C         -1.39471        0.00000        1.00000
C          0.69930        1.13676        1.00000
C          0.69930       -1.13676        1.00000
C         -0.68721       -1.19125        1.00000
C         -0.68721        1.19125        1.00000
H         -2.48184        0.00000        1.00000
H          1.28587        2.05509        1.00000
H          1.28587       -2.05509        1.00000
H         -1.19648       -2.15056        1.00000
H         -1.19648        2.15056        1.00000
$end

$comment
neutral
$end

$xc_functional
C PBE   1.00
X wPBE  1.00
$end


$rem
SYMMETRY_DECOMPOSITION	0
LRC_DFT                 true
exchange 		general
BASIS                   g3large
omega			290
mem_static              760
max_scf_cycles          200
scf_final_print         1
sym_ignore              true
$end

@@@
 
$molecule
1,2
N          1.39192        0.00000        1.00000
C         -1.39471        0.00000        1.00000
C          0.69930        1.13676        1.00000
C          0.69930       -1.13676        1.00000
C         -0.68721       -1.19125        1.00000
C         -0.68721        1.19125        1.00000
H         -2.48184        0.00000        1.00000
H          1.28587        2.05509        1.00000
H          1.28587       -2.05509        1.00000
H         -1.19648       -2.15056        1.00000
H         -1.19648        2.15056        1.00000
$end

$comment
positive
$end

$xc_functional
C PBE   1.00
X wPBE  1.00
$end

$rem
SYMMETRY_DECOMPOSITION	0
LRC_DFT                 true
exchange 		general
BASIS                   g3large
omega			290
mem_static              760
max_scf_cycles          200
scf_final_print         1
sym_ignore              true
$end

