 
$molecule
-1,2
C          0.03422        0.39973        0.74008
N          0.04052       -0.86945        0.00000
C          0.03422        0.39973       -0.74008
H         -0.88278       -1.28740        0.00000
H          0.94738        0.61448        1.27927
H          0.94738        0.61448       -1.27927
H         -0.87319        0.70076        1.24894
H         -0.87319        0.70076       -1.24894
$end

$comment
negative
$end

$xc_functional
C PBE   1.00
X wPBE  1.00
$end

$rem
SYMMETRY_DECOMPOSITION	0
exchange 		general
LRC_DFT                 true
BASIS                   g3large
omega			200
mem_static              760
max_scf_cycles          200
scf_final_print         1
sym_ignore              true
$end

@@@
 
$molecule
0,1
C          0.03422        0.39973        0.74008
N          0.04052       -0.86945        0.00000
C          0.03422        0.39973       -0.74008
H         -0.88278       -1.28740        0.00000
H          0.94738        0.61448        1.27927
H          0.94738        0.61448       -1.27927
H         -0.87319        0.70076        1.24894
H         -0.87319        0.70076       -1.24894
$end

$comment
neutral
$end

$xc_functional
C PBE   1.00
X wPBE  1.00
$end


$rem
SYMMETRY_DECOMPOSITION	0
LRC_DFT                 true
exchange 		general
BASIS                   g3large
omega			200
mem_static              760
max_scf_cycles          200
scf_final_print         1
sym_ignore              true
$end

@@@
 
$molecule
1,2
C          0.03422        0.39973        0.74008
N          0.04052       -0.86945        0.00000
C          0.03422        0.39973       -0.74008
H         -0.88278       -1.28740        0.00000
H          0.94738        0.61448        1.27927
H          0.94738        0.61448       -1.27927
H         -0.87319        0.70076        1.24894
H         -0.87319        0.70076       -1.24894
$end

$comment
positive
$end

$xc_functional
C PBE   1.00
X wPBE  1.00
$end

$rem
SYMMETRY_DECOMPOSITION	0
LRC_DFT                 true
exchange 		general
BASIS                   g3large
omega			200
mem_static              760
max_scf_cycles          200
scf_final_print         1
sym_ignore              true
$end

