 
$molecule
-1,2
C          0.00000        0.00000        0.00151
C          1.26338        0.00000        0.84479
C         -1.26338        0.00000        0.84479
H          0.00000       -0.87354       -0.65601
H          0.00000        0.87354       -0.65601
H          2.16143        0.00000        0.22538
H         -2.16143        0.00000        0.22538
H          1.30379        0.88043        1.48984
H          1.30379       -0.88043        1.48984
H         -1.30379       -0.88043        1.48984
H         -1.30379        0.88043        1.48984
$end

$comment
negative
$end

$xc_functional
C PBE   1.00
X wPBE  1.00
$end

$rem
SYMMETRY_DECOMPOSITION	0
exchange 		general
LRC_DFT                 true
BASIS                   g3large
omega			900
mem_static              760
max_scf_cycles          200
scf_final_print         1
sym_ignore              true
$end

@@@
 
$molecule
0,1
C          0.00000        0.00000        0.00151
C          1.26338        0.00000        0.84479
C         -1.26338        0.00000        0.84479
H          0.00000       -0.87354       -0.65601
H          0.00000        0.87354       -0.65601
H          2.16143        0.00000        0.22538
H         -2.16143        0.00000        0.22538
H          1.30379        0.88043        1.48984
H          1.30379       -0.88043        1.48984
H         -1.30379       -0.88043        1.48984
H         -1.30379        0.88043        1.48984
$end

$comment
neutral
$end

$xc_functional
C PBE   1.00
X wPBE  1.00
$end


$rem
SYMMETRY_DECOMPOSITION	0
LRC_DFT                 true
exchange 		general
BASIS                   g3large
omega			900
mem_static              760
max_scf_cycles          200
scf_final_print         1
sym_ignore              true
$end

@@@
 
$molecule
1,2
C          0.00000        0.00000        0.00151
C          1.26338        0.00000        0.84479
C         -1.26338        0.00000        0.84479
H          0.00000       -0.87354       -0.65601
H          0.00000        0.87354       -0.65601
H          2.16143        0.00000        0.22538
H         -2.16143        0.00000        0.22538
H          1.30379        0.88043        1.48984
H          1.30379       -0.88043        1.48984
H         -1.30379       -0.88043        1.48984
H         -1.30379        0.88043        1.48984
$end

$comment
positive
$end

$xc_functional
C PBE   1.00
X wPBE  1.00
$end

$rem
SYMMETRY_DECOMPOSITION	0
LRC_DFT                 true
exchange 		general
BASIS                   g3large
omega			900
mem_static              760
max_scf_cycles          200
scf_final_print         1
sym_ignore              true
$end

