 
$molecule
-1,2
O         -0.00500        0.00000       -0.00161
C         -0.00359        0.00000        1.40602
C          1.29166        0.00000       -0.53461
C         -1.43119        0.00000        1.89385
H          0.53384       -0.88583        1.77775
H          0.53384        0.88583        1.77775
H          1.20366        0.00000       -1.62122
H          1.85418        0.89105       -0.22313
H          1.85418       -0.89105       -0.22313
H         -1.95758        0.88452        1.53159
H         -1.95758       -0.88452        1.53159
H         -1.46244        0.00000        2.98520
$end

$comment
negative
$end

$xc_functional
C PBE   1.00
X wPBE  1.00
$end

$rem
SYMMETRY_DECOMPOSITION	0
exchange 		general
LRC_DFT                 true
BASIS                   g3large
omega			360
mem_static              760
max_scf_cycles          200
scf_final_print         1
sym_ignore              true
$end

@@@
 
$molecule
0,1
O         -0.00500        0.00000       -0.00161
C         -0.00359        0.00000        1.40602
C          1.29166        0.00000       -0.53461
C         -1.43119        0.00000        1.89385
H          0.53384       -0.88583        1.77775
H          0.53384        0.88583        1.77775
H          1.20366        0.00000       -1.62122
H          1.85418        0.89105       -0.22313
H          1.85418       -0.89105       -0.22313
H         -1.95758        0.88452        1.53159
H         -1.95758       -0.88452        1.53159
H         -1.46244        0.00000        2.98520
$end

$comment
neutral
$end

$xc_functional
C PBE   1.00
X wPBE  1.00
$end


$rem
SYMMETRY_DECOMPOSITION	0
LRC_DFT                 true
exchange 		general
BASIS                   g3large
omega			360
mem_static              760
max_scf_cycles          200
scf_final_print         1
sym_ignore              true
$end

@@@
 
$molecule
1,2
O         -0.00500        0.00000       -0.00161
C         -0.00359        0.00000        1.40602
C          1.29166        0.00000       -0.53461
C         -1.43119        0.00000        1.89385
H          0.53384       -0.88583        1.77775
H          0.53384        0.88583        1.77775
H          1.20366        0.00000       -1.62122
H          1.85418        0.89105       -0.22313
H          1.85418       -0.89105       -0.22313
H         -1.95758        0.88452        1.53159
H         -1.95758       -0.88452        1.53159
H         -1.46244        0.00000        2.98520
$end

$comment
positive
$end

$xc_functional
C PBE   1.00
X wPBE  1.00
$end

$rem
SYMMETRY_DECOMPOSITION	0
LRC_DFT                 true
exchange 		general
BASIS                   g3large
omega			360
mem_static              760
max_scf_cycles          200
scf_final_print         1
sym_ignore              true
$end

