 
$molecule
-1,2
C         -0.00052        0.00000        0.00432
C          1.25132        0.00000        0.88444
C         -1.26707        0.00000        0.83974
H         -0.00200       -0.87553       -0.64666
H         -0.00200        0.87553       -0.64666
H          2.15282        0.00000        0.27204
Cl        -2.75663        0.00000       -0.19158
H          1.28904        0.88135        1.52697
H          1.28904       -0.88135        1.52697
H         -1.33839       -0.88444        1.46802
H         -1.33839        0.88444        1.46802
$end

$comment
negative
$end

$xc_functional
C PBE   1.00
X wPBE  1.00
$end

$rem
SYMMETRY_DECOMPOSITION	0
exchange 		general
LRC_DFT                 true
BASIS                   g3large
omega			900
mem_static              760
max_scf_cycles          200
scf_final_print         1
sym_ignore              true
$end

@@@
 
$molecule
0,1
C         -0.00052        0.00000        0.00432
C          1.25132        0.00000        0.88444
C         -1.26707        0.00000        0.83974
H         -0.00200       -0.87553       -0.64666
H         -0.00200        0.87553       -0.64666
H          2.15282        0.00000        0.27204
Cl        -2.75663        0.00000       -0.19158
H          1.28904        0.88135        1.52697
H          1.28904       -0.88135        1.52697
H         -1.33839       -0.88444        1.46802
H         -1.33839        0.88444        1.46802
$end

$comment
neutral
$end

$xc_functional
C PBE   1.00
X wPBE  1.00
$end


$rem
SYMMETRY_DECOMPOSITION	0
LRC_DFT                 true
exchange 		general
BASIS                   g3large
omega			900
mem_static              760
max_scf_cycles          200
scf_final_print         1
sym_ignore              true
$end

@@@
 
$molecule
1,2
C         -0.00052        0.00000        0.00432
C          1.25132        0.00000        0.88444
C         -1.26707        0.00000        0.83974
H         -0.00200       -0.87553       -0.64666
H         -0.00200        0.87553       -0.64666
H          2.15282        0.00000        0.27204
Cl        -2.75663        0.00000       -0.19158
H          1.28904        0.88135        1.52697
H          1.28904       -0.88135        1.52697
H         -1.33839       -0.88444        1.46802
H         -1.33839        0.88444        1.46802
$end

$comment
positive
$end

$xc_functional
C PBE   1.00
X wPBE  1.00
$end

$rem
SYMMETRY_DECOMPOSITION	0
LRC_DFT                 true
exchange 		general
BASIS                   g3large
omega			900
mem_static              760
max_scf_cycles          200
scf_final_print         1
sym_ignore              true
$end

