 
$molecule
-1,2
C          0.00001        0.00000       -0.00166
Cl        -0.00007        0.00000        1.79444
H          1.02950        0.00000       -0.34282
H         -0.51472       -0.89149       -0.34267
H         -0.51472        0.89149       -0.34267
$end

$comment
negative
$end

$xc_functional
C PBE   1.00
X wPBE  1.00
$end

$rem
SYMMETRY_DECOMPOSITION	0
exchange 		general
LRC_DFT                 true
BASIS                   g3large
omega			600
mem_static              760
max_scf_cycles          200
scf_final_print         1
sym_ignore              true
$end

@@@
 
$molecule
0,1
C          0.00001        0.00000       -0.00166
Cl        -0.00007        0.00000        1.79444
H          1.02950        0.00000       -0.34282
H         -0.51472       -0.89149       -0.34267
H         -0.51472        0.89149       -0.34267
$end

$comment
neutral
$end

$xc_functional
C PBE   1.00
X wPBE  1.00
$end


$rem
SYMMETRY_DECOMPOSITION	0
LRC_DFT                 true
exchange 		general
BASIS                   g3large
omega			600
mem_static              760
max_scf_cycles          200
scf_final_print         1
sym_ignore              true
$end

@@@
 
$molecule
1,2
C          0.00001        0.00000       -0.00166
Cl        -0.00007        0.00000        1.79444
H          1.02950        0.00000       -0.34282
H         -0.51472       -0.89149       -0.34267
H         -0.51472        0.89149       -0.34267
$end

$comment
positive
$end

$xc_functional
C PBE   1.00
X wPBE  1.00
$end

$rem
SYMMETRY_DECOMPOSITION	0
LRC_DFT                 true
exchange 		general
BASIS                   g3large
omega			600
mem_static              760
max_scf_cycles          200
scf_final_print         1
sym_ignore              true
$end

