 
$molecule
-1,2
C         -0.00007        0.00000        0.00235
C         -0.00001        0.00000        1.45691
N          0.00012        0.00000        2.60600
H          1.02218        0.00000       -0.37368
H         -0.51111       -0.88519       -0.37399
H         -0.51111        0.88519       -0.37399
$end

$comment
negative
$end

$xc_functional
C PBE   1.00
X wPBE  1.00
$end

$rem
SYMMETRY_DECOMPOSITION	0
exchange 		general
LRC_DFT                 true
BASIS                   g3large
omega			300
mem_static              760
max_scf_cycles          200
scf_final_print         1
sym_ignore              true
$end

@@@
 
$molecule
0,1
C         -0.00007        0.00000        0.00235
C         -0.00001        0.00000        1.45691
N          0.00012        0.00000        2.60600
H          1.02218        0.00000       -0.37368
H         -0.51111       -0.88519       -0.37399
H         -0.51111        0.88519       -0.37399
$end

$comment
neutral
$end

$xc_functional
C PBE   1.00
X wPBE  1.00
$end


$rem
SYMMETRY_DECOMPOSITION	0
LRC_DFT                 true
exchange 		general
BASIS                   g3large
omega			300
mem_static              760
max_scf_cycles          200
scf_final_print         1
sym_ignore              true
$end

@@@
 
$molecule
1,2
C         -0.00007        0.00000        0.00235
C         -0.00001        0.00000        1.45691
N          0.00012        0.00000        2.60600
H          1.02218        0.00000       -0.37368
H         -0.51111       -0.88519       -0.37399
H         -0.51111        0.88519       -0.37399
$end

$comment
positive
$end

$xc_functional
C PBE   1.00
X wPBE  1.00
$end

$rem
SYMMETRY_DECOMPOSITION	0
LRC_DFT                 true
exchange 		general
BASIS                   g3large
omega			300
mem_static              760
max_scf_cycles          200
scf_final_print         1
sym_ignore              true
$end

