 
$molecule
-1,2
C          1.07457        0.00000        0.12997
C         -1.07457        0.00000        0.12997
C          0.00000        1.07457       -0.12997
C          0.00000       -1.07457       -0.12997
H          1.96370        0.00000       -0.50430
H          1.39267        0.00000        1.17603
H         -1.96370        0.00000       -0.50430
H         -1.39267        0.00000        1.17603
H          0.00000        1.96370        0.50430
H          0.00000        1.39267       -1.17603
H          0.00000       -1.96370        0.50430
H          0.00000       -1.39267       -1.17603
$end

$comment
negative
$end

$xc_functional
C PBE   1.00
X wPBE  1.00
$end

$rem
SYMMETRY_DECOMPOSITION	0
exchange 		general
LRC_DFT                 true
BASIS                   g3large
omega			2000
mem_static              760
max_scf_cycles          200
scf_final_print         1
sym_ignore              true
$end

@@@
 
$molecule
0,1
C          1.07457        0.00000        0.12997
C         -1.07457        0.00000        0.12997
C          0.00000        1.07457       -0.12997
C          0.00000       -1.07457       -0.12997
H          1.96370        0.00000       -0.50430
H          1.39267        0.00000        1.17603
H         -1.96370        0.00000       -0.50430
H         -1.39267        0.00000        1.17603
H          0.00000        1.96370        0.50430
H          0.00000        1.39267       -1.17603
H          0.00000       -1.96370        0.50430
H          0.00000       -1.39267       -1.17603
$end

$comment
neutral
$end

$xc_functional
C PBE   1.00
X wPBE  1.00
$end


$rem
SYMMETRY_DECOMPOSITION	0
LRC_DFT                 true
exchange 		general
BASIS                   g3large
omega			2000
mem_static              760
max_scf_cycles          200
scf_final_print         1
sym_ignore              true
$end

@@@
 
$molecule
1,2
C          1.07457        0.00000        0.12997
C         -1.07457        0.00000        0.12997
C          0.00000        1.07457       -0.12997
C          0.00000       -1.07457       -0.12997
H          1.96370        0.00000       -0.50430
H          1.39267        0.00000        1.17603
H         -1.96370        0.00000       -0.50430
H         -1.39267        0.00000        1.17603
H          0.00000        1.96370        0.50430
H          0.00000        1.39267       -1.17603
H          0.00000       -1.96370        0.50430
H          0.00000       -1.39267       -1.17603
$end

$comment
positive
$end

$xc_functional
C PBE   1.00
X wPBE  1.00
$end

$rem
SYMMETRY_DECOMPOSITION	0
LRC_DFT                 true
exchange 		general
BASIS                   g3large
omega			2000
mem_static              760
max_scf_cycles          200
scf_final_print         1
sym_ignore              true
$end

