 
$molecule
-1,2
C          0.00000        0.00000        1.38953
C          1.20351        0.00000        0.69484
C          1.20351        0.00000       -0.69484
C          0.00000        0.00000       -1.38953
C         -1.20351        0.00000       -0.69484
C         -1.20351        0.00000        0.69484
H          0.00000        0.00000        2.47757
H          2.14570        0.00000        1.23893
H          2.14570        0.00000       -1.23893
H          0.00000        0.00000       -2.47757
H         -2.14570        0.00000       -1.23893
H         -2.14570        0.00000        1.23893
$end

$comment
negative
$end

$xc_functional
C PBE   1.00
X wPBE  1.00
$end

$rem
SYMMETRY_DECOMPOSITION	0
exchange 		general
LRC_DFT                 true
BASIS                   g3large
omega			310
mem_static              760
max_scf_cycles          200
scf_final_print         1
sym_ignore              true
$end

@@@
 
$molecule
0,1
C          0.00000        0.00000        1.38953
C          1.20351        0.00000        0.69484
C          1.20351        0.00000       -0.69484
C          0.00000        0.00000       -1.38953
C         -1.20351        0.00000       -0.69484
C         -1.20351        0.00000        0.69484
H          0.00000        0.00000        2.47757
H          2.14570        0.00000        1.23893
H          2.14570        0.00000       -1.23893
H          0.00000        0.00000       -2.47757
H         -2.14570        0.00000       -1.23893
H         -2.14570        0.00000        1.23893
$end

$comment
neutral
$end

$xc_functional
C PBE   1.00
X wPBE  1.00
$end


$rem
SYMMETRY_DECOMPOSITION	0
LRC_DFT                 true
exchange 		general
BASIS                   g3large
omega			310
mem_static              760
max_scf_cycles          200
scf_final_print         1
sym_ignore              true
$end

@@@
 
$molecule
1,2
C          0.00000        0.00000        1.38953
C          1.20351        0.00000        0.69484
C          1.20351        0.00000       -0.69484
C          0.00000        0.00000       -1.38953
C         -1.20351        0.00000       -0.69484
C         -1.20351        0.00000        0.69484
H          0.00000        0.00000        2.47757
H          2.14570        0.00000        1.23893
H          2.14570        0.00000       -1.23893
H          0.00000        0.00000       -2.47757
H         -2.14570        0.00000       -1.23893
H         -2.14570        0.00000        1.23893
$end

$comment
positive
$end

$xc_functional
C PBE   1.00
X wPBE  1.00
$end

$rem
SYMMETRY_DECOMPOSITION	0
LRC_DFT                 true
exchange 		general
BASIS                   g3large
omega			310
mem_static              760
max_scf_cycles          200
scf_final_print         1
sym_ignore              true
$end

