 
$molecule
-1,2
Si        -0.00009        0.00000        0.00110
Cl         0.00019        0.00000        2.01284
Cl         1.89621        0.00000       -0.67116
Cl        -0.94815        1.64199       -0.67139
Cl        -0.94815       -1.64199       -0.67139
$end

$comment
negative
$end

$xc_functional
C PBE   1.00
X wPBE  1.00
$end

$rem
SYMMETRY_DECOMPOSITION	0
exchange 		general
LRC_DFT                 true
BASIS                   g3large
omega			800
mem_static              760
max_scf_cycles          200
scf_final_print         1
sym_ignore              true
$end

@@@
 
$molecule
0,1
Si        -0.00009        0.00000        0.00110
Cl         0.00019        0.00000        2.01284
Cl         1.89621        0.00000       -0.67116
Cl        -0.94815        1.64199       -0.67139
Cl        -0.94815       -1.64199       -0.67139
$end

$comment
neutral
$end

$xc_functional
C PBE   1.00
X wPBE  1.00
$end


$rem
SYMMETRY_DECOMPOSITION	0
LRC_DFT                 true
exchange 		general
BASIS                   g3large
omega			800
mem_static              760
max_scf_cycles          200
scf_final_print         1
sym_ignore              true
$end

@@@
 
$molecule
1,2
Si        -0.00009        0.00000        0.00110
Cl         0.00019        0.00000        2.01284
Cl         1.89621        0.00000       -0.67116
Cl        -0.94815        1.64199       -0.67139
Cl        -0.94815       -1.64199       -0.67139
$end

$comment
positive
$end

$xc_functional
C PBE   1.00
X wPBE  1.00
$end

$rem
SYMMETRY_DECOMPOSITION	0
LRC_DFT                 true
exchange 		general
BASIS                   g3large
omega			800
mem_static              760
max_scf_cycles          200
scf_final_print         1
sym_ignore              true
$end

