 
$molecule
-1,2
C         -0.30161       -1.11244        0.73483
O         -0.31175        0.32453        0.75683
H         -0.69645       -1.40378        1.70231
H          0.71198       -1.48850        0.60307
H         -0.93288       -1.48979       -0.06853
N          0.16250        0.95583       -0.39497
O          0.51391        0.22588       -1.25003
$end

$comment
negative
$end

$xc_functional
C PBE   1.00
X wPBE  1.00
$end

$rem
SYMMETRY_DECOMPOSITION	0
exchange 		general
LRC_DFT                 true
BASIS                   g3large
omega			xOMEGA
mem_static              760
max_scf_cycles          200
scf_final_print         1
sym_ignore              true
$end

@@@
 
$molecule
0,1
C         -0.30161       -1.11244        0.73483
O         -0.31175        0.32453        0.75683
H         -0.69645       -1.40378        1.70231
H          0.71198       -1.48850        0.60307
H         -0.93288       -1.48979       -0.06853
N          0.16250        0.95583       -0.39497
O          0.51391        0.22588       -1.25003
$end

$comment
neutral
$end

$xc_functional
C PBE   1.00
X wPBE  1.00
$end


$rem
SYMMETRY_DECOMPOSITION	0
LRC_DFT                 true
exchange 		general
BASIS                   g3large
omega			xOMEGA
mem_static              760
max_scf_cycles          200
scf_final_print         1
sym_ignore              true
$end

@@@
 
$molecule
1,2
C         -0.30161       -1.11244        0.73483
O         -0.31175        0.32453        0.75683
H         -0.69645       -1.40378        1.70231
H          0.71198       -1.48850        0.60307
H         -0.93288       -1.48979       -0.06853
N          0.16250        0.95583       -0.39497
O          0.51391        0.22588       -1.25003
$end

$comment
positive
$end

$xc_functional
C PBE   1.00
X wPBE  1.00
$end

$rem
SYMMETRY_DECOMPOSITION	0
LRC_DFT                 true
exchange 		general
BASIS                   g3large
omega			xOMEGA
mem_static              760
max_scf_cycles          200
scf_final_print         1
sym_ignore              true
$end

