 
$molecule
-1,2
C          0.66632        0.00000        0.00649
C         -0.66632        0.00000        0.00649
C          0.77917        0.00000        1.51294
C         -0.77917        0.00000        1.51294
H          1.41416        0.00000       -0.78079
H         -1.41416        0.00000       -0.78079
H          1.23769        0.88958        1.95527
H          1.23769       -0.88958        1.95527
H         -1.23769       -0.88958        1.95527
H         -1.23769        0.88958        1.95527
$end

$comment
negative
$end

$xc_functional
C PBE   1.00
X wPBE  1.00
$end

$rem
SYMMETRY_DECOMPOSITION	0
exchange 		general
LRC_DFT                 true
BASIS                   g3large
omega			320
mem_static              760
max_scf_cycles          200
scf_final_print         1
sym_ignore              true
$end

@@@
 
$molecule
0,1
C          0.66632        0.00000        0.00649
C         -0.66632        0.00000        0.00649
C          0.77917        0.00000        1.51294
C         -0.77917        0.00000        1.51294
H          1.41416        0.00000       -0.78079
H         -1.41416        0.00000       -0.78079
H          1.23769        0.88958        1.95527
H          1.23769       -0.88958        1.95527
H         -1.23769       -0.88958        1.95527
H         -1.23769        0.88958        1.95527
$end

$comment
neutral
$end

$xc_functional
C PBE   1.00
X wPBE  1.00
$end


$rem
SYMMETRY_DECOMPOSITION	0
LRC_DFT                 true
exchange 		general
BASIS                   g3large
omega			320
mem_static              760
max_scf_cycles          200
scf_final_print         1
sym_ignore              true
$end

@@@
 
$molecule
1,2
C          0.66632        0.00000        0.00649
C         -0.66632        0.00000        0.00649
C          0.77917        0.00000        1.51294
C         -0.77917        0.00000        1.51294
H          1.41416        0.00000       -0.78079
H         -1.41416        0.00000       -0.78079
H          1.23769        0.88958        1.95527
H          1.23769       -0.88958        1.95527
H         -1.23769       -0.88958        1.95527
H         -1.23769        0.88958        1.95527
$end

$comment
positive
$end

$xc_functional
C PBE   1.00
X wPBE  1.00
$end

$rem
SYMMETRY_DECOMPOSITION	0
LRC_DFT                 true
exchange 		general
BASIS                   g3large
omega			320
mem_static              760
max_scf_cycles          200
scf_final_print         1
sym_ignore              true
$end

