 
$molecule
-1,2
C          0.00000        0.00000        0.31543
C          0.76396        0.00000       -0.93074
C         -0.76396        0.00000       -0.93074
C          0.00000        0.00000        1.63016
H          1.26928       -0.91407       -1.23091
H          1.26928        0.91407       -1.23091
H         -1.26928        0.91407       -1.23091
H         -1.26928       -0.91407       -1.23091
H          0.92992        0.00000        2.19319
H         -0.92992        0.00000        2.19319
$end

$comment
negative
$end

$xc_functional
C PBE   1.00
X wPBE  1.00
$end

$rem
SYMMETRY_DECOMPOSITION	0
exchange 		general
LRC_DFT                 true
BASIS                   g3large
omega			200
mem_static              760
max_scf_cycles          200
scf_final_print         1
sym_ignore              true
$end

@@@
 
$molecule
0,1
C          0.00000        0.00000        0.31543
C          0.76396        0.00000       -0.93074
C         -0.76396        0.00000       -0.93074
C          0.00000        0.00000        1.63016
H          1.26928       -0.91407       -1.23091
H          1.26928        0.91407       -1.23091
H         -1.26928        0.91407       -1.23091
H         -1.26928       -0.91407       -1.23091
H          0.92992        0.00000        2.19319
H         -0.92992        0.00000        2.19319
$end

$comment
neutral
$end

$xc_functional
C PBE   1.00
X wPBE  1.00
$end


$rem
SYMMETRY_DECOMPOSITION	0
LRC_DFT                 true
exchange 		general
BASIS                   g3large
omega			200
mem_static              760
max_scf_cycles          200
scf_final_print         1
sym_ignore              true
$end

@@@
 
$molecule
1,2
C          0.00000        0.00000        0.31543
C          0.76396        0.00000       -0.93074
C         -0.76396        0.00000       -0.93074
C          0.00000        0.00000        1.63016
H          1.26928       -0.91407       -1.23091
H          1.26928        0.91407       -1.23091
H         -1.26928        0.91407       -1.23091
H         -1.26928       -0.91407       -1.23091
H          0.92992        0.00000        2.19319
H         -0.92992        0.00000        2.19319
$end

$comment
positive
$end

$xc_functional
C PBE   1.00
X wPBE  1.00
$end

$rem
SYMMETRY_DECOMPOSITION	0
LRC_DFT                 true
exchange 		general
BASIS                   g3large
omega			200
mem_static              760
max_scf_cycles          200
scf_final_print         1
sym_ignore              true
$end

