 
$molecule
-1,2
N          1.39311        0.00000        1.00000
C         -1.39735        0.00000        1.00000
C          0.70090        1.14021        1.00000
C          0.70090       -1.14021        1.00000
C         -0.68836       -1.19383        1.00000
C         -0.68836        1.19383        1.00000
H         -2.47932        0.00000        1.00000
H          1.28464        2.05383        1.00000
H          1.28464       -2.05383        1.00000
H         -1.19623       -2.14840        1.00000
H         -1.19623        2.14840        1.00000
$end

$comment
negative
$end

$xc_functional
C PBE   1.00
X wPBE  1.00
$end

$rem
SYMMETRY_DECOMPOSITION	0
exchange 		general
LRC_DFT                 true
BASIS                   g3large
omega			600
mem_static              760
max_scf_cycles          200
scf_final_print         1
sym_ignore              true
$end

@@@
 
$molecule
0,1
N          1.39311        0.00000        1.00000
C         -1.39735        0.00000        1.00000
C          0.70090        1.14021        1.00000
C          0.70090       -1.14021        1.00000
C         -0.68836       -1.19383        1.00000
C         -0.68836        1.19383        1.00000
H         -2.47932        0.00000        1.00000
H          1.28464        2.05383        1.00000
H          1.28464       -2.05383        1.00000
H         -1.19623       -2.14840        1.00000
H         -1.19623        2.14840        1.00000
$end

$comment
neutral
$end

$xc_functional
C PBE   1.00
X wPBE  1.00
$end


$rem
SYMMETRY_DECOMPOSITION	0
LRC_DFT                 true
exchange 		general
BASIS                   g3large
omega			600
mem_static              760
max_scf_cycles          200
scf_final_print         1
sym_ignore              true
$end

@@@
 
$molecule
1,2
N          1.39311        0.00000        1.00000
C         -1.39735        0.00000        1.00000
C          0.70090        1.14021        1.00000
C          0.70090       -1.14021        1.00000
C         -0.68836       -1.19383        1.00000
C         -0.68836        1.19383        1.00000
H         -2.47932        0.00000        1.00000
H          1.28464        2.05383        1.00000
H          1.28464       -2.05383        1.00000
H         -1.19623       -2.14840        1.00000
H         -1.19623        2.14840        1.00000
$end

$comment
positive
$end

$xc_functional
C PBE   1.00
X wPBE  1.00
$end

$rem
SYMMETRY_DECOMPOSITION	0
LRC_DFT                 true
exchange 		general
BASIS                   g3large
omega			600
mem_static              760
max_scf_cycles          200
scf_final_print         1
sym_ignore              true
$end

